LAMMPS data file. CGCMM style. atom_style full generated by VMD/TopoTools v1.8 on Mon Jun 23 16:04:26 CDT 2025
 3072 atoms
 2048 bonds
 1024 angles
 0 dihedrals
 0 impropers
 3 atom types
 1 bond types
 1 angle types
 0 dihedral types
 0 improper types
 -0.278881 39.321117  xlo xhi
 0.246421 39.846419  ylo yhi
 -0.280354 39.319644  zlo zhi

# Pair Coeffs
#
# 1  C_EP1
# 2  O_EP2
# 3  O_EP3

# Bond Coeffs
#
# 1  

# Angle Coeffs
#
# 1  O_EP2-C_EP1-O_EP3

 Masses

 1 12.011000 # C_EP1
 2 15.999000 # O_EP2
 3 15.999000 # O_EP3

 Atoms # full

1 1 1 0.651200 5.228617 9.770420 21.320646 # C_EP1 CO2
2 1 2 -0.325600 4.112617 9.484419 21.458645 # O_EP2 CO2
3 1 3 -0.325600 6.343616 10.057420 21.182648 # O_EP3 CO2
4 2 1 0.651200 10.451616 2.853420 34.973644 # C_EP1 CO2
5 2 2 -0.325600 10.687617 2.044420 35.770645 # O_EP2 CO2
6 2 3 -0.325600 10.216617 3.662419 34.176643 # O_EP3 CO2
7 3 1 0.651200 35.084618 21.988420 33.736645 # C_EP1 CO2
8 3 2 -0.325600 35.375618 22.246420 34.830647 # O_EP2 CO2
9 3 3 -0.325600 34.794617 21.730421 32.643646 # O_EP3 CO2
10 4 1 0.651200 30.876617 18.489420 26.706646 # C_EP1 CO2
11 4 2 -0.325600 30.884617 18.425419 27.864647 # O_EP2 CO2
12 4 3 -0.325600 30.868616 18.553419 25.548647 # O_EP3 CO2
13 5 1 0.651200 25.913618 20.915421 11.457645 # C_EP1 CO2
14 5 2 -0.325600 25.087616 21.604420 11.023646 # O_EP2 CO2
15 5 3 -0.325600 26.739616 20.226419 11.891646 # O_EP3 CO2
16 6 1 0.651200 30.422615 25.427420 36.087646 # C_EP1 CO2
17 6 2 -0.325600 30.326616 25.216419 37.223648 # O_EP2 CO2
18 6 3 -0.325600 30.518618 25.638420 34.950645 # O_EP3 CO2
19 7 1 0.651200 38.040615 9.176419 5.818646 # C_EP1 CO2
20 7 2 -0.325600 38.327618 9.451420 4.729646 # O_EP2 CO2
21 7 3 -0.325600 37.752617 8.902419 6.908646 # O_EP3 CO2
22 8 1 0.651200 9.509617 7.722420 28.021645 # C_EP1 CO2
23 8 2 -0.325600 9.137617 7.770420 29.119646 # O_EP2 CO2
24 8 3 -0.325600 9.882617 7.674419 26.923647 # O_EP3 CO2
25 9 1 0.651200 17.309616 33.671421 30.955647 # C_EP1 CO2
26 9 2 -0.325600 18.168617 33.814419 30.189646 # O_EP2 CO2
27 9 3 -0.325600 16.450617 33.527420 31.721647 # O_EP3 CO2
28 10 1 0.651200 27.614616 35.376419 29.823647 # C_EP1 CO2
29 10 2 -0.325600 28.438616 36.138420 29.527645 # O_EP2 CO2
30 10 3 -0.325600 26.791615 34.614418 30.118647 # O_EP3 CO2
31 11 1 0.651200 22.378616 31.915419 7.383646 # C_EP1 CO2
32 11 2 -0.325600 21.871616 31.915419 8.427647 # O_EP2 CO2
33 11 3 -0.325600 22.884617 31.914421 6.340646 # O_EP3 CO2
34 12 1 0.651200 16.206615 1.255419 25.586645 # C_EP1 CO2
35 12 2 -0.325600 16.290617 1.271420 26.743645 # O_EP2 CO2
36 12 3 -0.325600 16.122616 1.239419 24.429646 # O_EP3 CO2
37 13 1 0.651200 16.071617 22.798420 35.451645 # C_EP1 CO2
38 13 2 -0.325600 16.503616 23.335419 34.518646 # O_EP2 CO2
39 13 3 -0.325600 15.638617 22.261419 36.384647 # O_EP3 CO2
40 14 1 0.651200 0.762616 24.019421 28.409645 # C_EP1 CO2
41 14 2 -0.325600 0.797617 24.058418 29.568645 # O_EP2 CO2
42 14 3 -0.325600 0.727616 23.979418 27.250645 # O_EP3 CO2
43 15 1 0.651200 2.697617 33.835419 32.941647 # C_EP1 CO2
44 15 2 -0.325600 3.401617 33.295418 32.193645 # O_EP2 CO2
45 15 3 -0.325600 1.994617 34.375420 33.689648 # O_EP3 CO2
46 16 1 0.651200 8.517616 4.893419 30.365646 # C_EP1 CO2
47 16 2 -0.325600 7.668617 5.399420 29.757645 # O_EP2 CO2
48 16 3 -0.325600 9.367617 4.388419 30.972645 # O_EP3 CO2
49 17 1 0.651200 13.109616 27.935419 4.883646 # C_EP1 CO2
50 17 2 -0.325600 13.048616 28.316420 3.790646 # O_EP2 CO2
51 17 3 -0.325600 13.169617 27.553421 5.977646 # O_EP3 CO2
52 18 1 0.651200 7.290617 4.537419 13.721646 # C_EP1 CO2
53 18 2 -0.325600 6.827617 5.600420 13.737646 # O_EP2 CO2
54 18 3 -0.325600 7.753616 3.473420 13.704645 # O_EP3 CO2
55 19 1 0.651200 15.756617 33.863419 15.272646 # C_EP1 CO2
56 19 2 -0.325600 16.756617 34.221420 15.738646 # O_EP2 CO2
57 19 3 -0.325600 14.756617 33.505417 14.805646 # O_EP3 CO2
58 20 1 0.651200 18.952616 17.768419 9.279646 # C_EP1 CO2
59 20 2 -0.325600 18.840616 17.619419 10.424646 # O_EP2 CO2
60 20 3 -0.325600 19.064615 17.917419 8.134645 # O_EP3 CO2
61 21 1 0.651200 33.574615 20.294418 24.399645 # C_EP1 CO2
62 21 2 -0.325600 33.093616 21.167419 24.992647 # O_EP2 CO2
63 21 3 -0.325600 34.056618 19.422419 23.806646 # O_EP3 CO2
64 22 1 0.651200 20.156616 15.499419 35.815647 # C_EP1 CO2
65 22 2 -0.325600 20.076616 15.334419 34.669643 # O_EP2 CO2
66 22 3 -0.325600 20.237617 15.665419 36.960648 # O_EP3 CO2
67 23 1 0.651200 33.519615 1.436419 20.796646 # C_EP1 CO2
68 23 2 -0.325600 34.634617 1.446419 21.114645 # O_EP2 CO2
69 23 3 -0.325600 32.403618 1.425419 20.479645 # O_EP3 CO2
70 24 1 0.651200 9.946617 10.043420 22.927647 # C_EP1 CO2
71 24 2 -0.325600 8.843616 9.685419 22.940645 # O_EP2 CO2
72 24 3 -0.325600 11.050616 10.400419 22.914646 # O_EP3 CO2
73 25 1 0.651200 1.287616 27.999420 27.783646 # C_EP1 CO2
74 25 2 -0.325600 1.848616 27.386419 28.593645 # O_EP2 CO2
75 25 3 -0.325600 0.727616 28.611420 26.972647 # O_EP3 CO2
76 26 1 0.651200 9.320617 23.799419 23.206646 # C_EP1 CO2
77 26 2 -0.325600 9.243616 24.038420 22.073647 # O_EP2 CO2
78 26 3 -0.325600 9.397616 23.561420 24.338646 # O_EP3 CO2
79 27 1 0.651200 6.660616 14.191419 18.315645 # C_EP1 CO2
80 27 2 -0.325600 7.188616 14.070419 19.341646 # O_EP2 CO2
81 27 3 -0.325600 6.132617 14.312420 17.289646 # O_EP3 CO2
82 28 1 0.651200 26.332617 24.317419 22.496645 # C_EP1 CO2
83 28 2 -0.325600 26.159615 24.304419 21.349648 # O_EP2 CO2
84 28 3 -0.325600 26.504616 24.329418 23.643646 # O_EP3 CO2
85 29 1 0.651200 31.508617 29.101419 14.528646 # C_EP1 CO2
86 29 2 -0.325600 30.619617 28.620419 15.098646 # O_EP2 CO2
87 29 3 -0.325600 32.396618 29.582420 13.958646 # O_EP3 CO2
88 30 1 0.651200 20.651617 24.575420 37.553646 # C_EP1 CO2
89 30 2 -0.325600 21.199617 23.799419 36.889645 # O_EP2 CO2
90 30 3 -0.325600 20.102615 25.352419 38.218647 # O_EP3 CO2
91 31 1 0.651200 20.347616 24.632420 29.976646 # C_EP1 CO2
92 31 2 -0.325600 19.737616 23.928421 30.666647 # O_EP2 CO2
93 31 3 -0.325600 20.957615 25.337420 29.285645 # O_EP3 CO2
94 32 1 0.651200 6.066617 20.467419 32.507645 # C_EP1 CO2
95 32 2 -0.325600 6.712617 21.055420 33.269646 # O_EP2 CO2
96 32 3 -0.325600 5.420616 19.878420 31.744648 # O_EP3 CO2
97 33 1 0.651200 37.307617 22.075420 20.262646 # C_EP1 CO2
98 33 2 -0.325600 37.119617 21.257420 21.063644 # O_EP2 CO2
99 33 3 -0.325600 37.495617 22.893419 19.461647 # O_EP3 CO2
100 34 1 0.651200 20.107616 28.916418 24.618647 # C_EP1 CO2
101 34 2 -0.325600 21.144617 28.442419 24.407646 # O_EP2 CO2
102 34 3 -0.325600 19.069616 29.391420 24.828646 # O_EP3 CO2
103 35 1 0.651200 1.291617 14.779420 3.099646 # C_EP1 CO2
104 35 2 -0.325600 0.892617 15.851419 2.910646 # O_EP2 CO2
105 35 3 -0.325600 1.689616 13.706419 3.288646 # O_EP3 CO2
106 36 1 0.651200 6.724616 27.330420 7.866646 # C_EP1 CO2
107 36 2 -0.325600 5.885616 28.123419 7.752646 # O_EP2 CO2
108 36 3 -0.325600 7.562616 26.536419 7.980646 # O_EP3 CO2
109 37 1 0.651200 24.319614 23.533421 9.451646 # C_EP1 CO2
110 37 2 -0.325600 25.193617 24.290419 9.353646 # O_EP2 CO2
111 37 3 -0.325600 23.446617 22.776421 9.548646 # O_EP3 CO2
112 38 1 0.651200 12.408617 18.093418 22.800646 # C_EP1 CO2
113 38 2 -0.325600 11.627617 17.244419 22.921646 # O_EP2 CO2
114 38 3 -0.325600 13.189616 18.942419 22.679646 # O_EP3 CO2
115 39 1 0.651200 27.470617 5.600420 23.349646 # C_EP1 CO2
116 39 2 -0.325600 26.922617 6.012420 22.414646 # O_EP2 CO2
117 39 3 -0.325600 28.019617 5.188419 24.285645 # O_EP3 CO2
118 40 1 0.651200 33.788616 34.544418 24.643646 # C_EP1 CO2
119 40 2 -0.325600 32.937618 35.331417 24.643646 # O_EP2 CO2
120 40 3 -0.325600 34.640617 33.756420 24.642647 # O_EP3 CO2
121 41 1 0.651200 33.308617 33.712421 19.360645 # C_EP1 CO2
122 41 2 -0.325600 33.742615 34.358421 18.499645 # O_EP2 CO2
123 41 3 -0.325600 32.875618 33.066422 20.220646 # O_EP3 CO2
124 42 1 0.651200 21.820618 11.621419 25.235645 # C_EP1 CO2
125 42 2 -0.325600 22.467615 10.661420 25.164646 # O_EP2 CO2
126 42 3 -0.325600 21.173615 12.581420 25.305645 # O_EP3 CO2
127 43 1 0.651200 12.761617 30.941420 15.851645 # C_EP1 CO2
128 43 2 -0.325600 11.633616 30.888420 15.584646 # O_EP2 CO2
129 43 3 -0.325600 13.888617 30.993420 16.119646 # O_EP3 CO2
130 44 1 0.651200 31.342617 22.151421 26.267645 # C_EP1 CO2
131 44 2 -0.325600 30.589617 21.842421 25.440645 # O_EP2 CO2
132 44 3 -0.325600 32.094616 22.460421 27.094646 # O_EP3 CO2
133 45 1 0.651200 26.319616 13.557420 20.581646 # C_EP1 CO2
134 45 2 -0.325600 25.324615 13.221418 20.090647 # O_EP2 CO2
135 45 3 -0.325600 27.315617 13.894420 21.072645 # O_EP3 CO2
136 46 1 0.651200 30.071617 36.029419 36.410645 # C_EP1 CO2
137 46 2 -0.325600 30.766617 35.811420 37.312645 # O_EP2 CO2
138 46 3 -0.325600 29.376617 36.248421 35.507645 # O_EP3 CO2
139 47 1 0.651200 19.445616 34.430420 11.137647 # C_EP1 CO2
140 47 2 -0.325600 19.843616 33.424419 10.719646 # O_EP2 CO2
141 47 3 -0.325600 19.048616 35.437420 11.555645 # O_EP3 CO2
142 48 1 0.651200 35.944618 4.604420 27.937645 # C_EP1 CO2
143 48 2 -0.325600 35.678616 5.405419 27.141645 # O_EP2 CO2
144 48 3 -0.325600 36.210617 3.804419 28.733646 # O_EP3 CO2
145 49 1 0.651200 34.916615 24.205420 33.277645 # C_EP1 CO2
146 49 2 -0.325600 35.606617 23.971420 32.374645 # O_EP2 CO2
147 49 3 -0.325600 34.226616 24.439419 34.179646 # O_EP3 CO2
148 50 1 0.651200 26.764618 5.004419 30.055647 # C_EP1 CO2
149 50 2 -0.325600 27.428617 4.124419 30.418646 # O_EP2 CO2
150 50 3 -0.325600 26.100616 5.883420 29.692646 # O_EP3 CO2
151 51 1 0.651200 38.296616 15.723419 6.329646 # C_EP1 CO2
152 51 2 -0.325600 38.334618 15.912419 7.473646 # O_EP2 CO2
153 51 3 -0.325600 38.258617 15.534420 5.185646 # O_EP3 CO2
154 52 1 0.651200 23.959618 18.276421 14.004646 # C_EP1 CO2
155 52 2 -0.325600 23.949615 18.184420 15.160646 # O_EP2 CO2
156 52 3 -0.325600 23.968616 18.367420 12.848645 # O_EP3 CO2
157 53 1 0.651200 13.771616 11.487419 10.088646 # C_EP1 CO2
158 53 2 -0.325600 13.161616 12.124419 10.841646 # O_EP2 CO2
159 53 3 -0.325600 14.381617 10.849420 9.334646 # O_EP3 CO2
160 54 1 0.651200 31.718616 27.497421 12.187645 # C_EP1 CO2
161 54 2 -0.325600 32.229618 27.647419 11.157646 # O_EP2 CO2
162 54 3 -0.325600 31.206617 27.347420 13.218646 # O_EP3 CO2
163 55 1 0.651200 36.336617 10.731420 36.878647 # C_EP1 CO2
164 55 2 -0.325600 35.242619 10.418420 36.654648 # O_EP2 CO2
165 55 3 -0.325600 37.430614 11.045419 37.102646 # O_EP3 CO2
166 56 1 0.651200 26.979616 1.919420 30.903646 # C_EP1 CO2
167 56 2 -0.325600 26.032618 1.599419 30.314646 # O_EP2 CO2
168 56 3 -0.325600 27.925615 2.238420 31.493647 # O_EP3 CO2
169 57 1 0.651200 3.878616 30.419418 32.641647 # C_EP1 CO2
170 57 2 -0.325600 4.469616 29.804420 33.428646 # O_EP2 CO2
171 57 3 -0.325600 3.288617 31.033421 31.854647 # O_EP3 CO2
172 58 1 0.651200 27.256618 8.327419 29.380646 # C_EP1 CO2
173 58 2 -0.325600 28.040617 8.816420 30.080645 # O_EP2 CO2
174 58 3 -0.325600 26.472616 7.837420 28.679646 # O_EP3 CO2
175 59 1 0.651200 18.409616 11.383419 7.578646 # C_EP1 CO2
176 59 2 -0.325600 18.279617 11.408420 6.426646 # O_EP2 CO2
177 59 3 -0.325600 18.539618 11.359420 8.731646 # O_EP3 CO2
178 60 1 0.651200 36.525616 37.530418 25.813646 # C_EP1 CO2
179 60 2 -0.325600 35.888618 38.300419 25.224646 # O_EP2 CO2
180 60 3 -0.325600 37.162617 36.760418 26.402645 # O_EP3 CO2
181 61 1 0.651200 36.477615 37.434422 29.520645 # C_EP1 CO2
182 61 2 -0.325600 36.217617 37.167419 30.618647 # O_EP2 CO2
183 61 3 -0.325600 36.736618 37.701420 28.421646 # O_EP3 CO2
184 62 1 0.651200 36.482616 17.880419 9.271646 # C_EP1 CO2
185 62 2 -0.325600 36.013618 18.295420 10.248646 # O_EP2 CO2
186 62 3 -0.325600 36.951614 17.466419 8.295647 # O_EP3 CO2
187 63 1 0.651200 21.519615 26.035419 20.855646 # C_EP1 CO2
188 63 2 -0.325600 21.730616 27.027418 20.293646 # O_EP2 CO2
189 63 3 -0.325600 21.308617 25.043419 21.418646 # O_EP3 CO2
190 64 1 0.651200 34.553616 28.817421 13.086645 # C_EP1 CO2
191 64 2 -0.325600 34.301617 28.241421 12.111646 # O_EP2 CO2
192 64 3 -0.325600 34.805618 29.392418 14.061646 # O_EP3 CO2
193 65 1 0.651200 8.134617 11.055420 33.629646 # C_EP1 CO2
194 65 2 -0.325600 8.953617 11.384419 34.382645 # O_EP2 CO2
195 65 3 -0.325600 7.315617 10.727420 32.876648 # O_EP3 CO2
196 66 1 0.651200 8.538616 31.300419 7.588646 # C_EP1 CO2
197 66 2 -0.325600 8.563616 32.031418 8.489646 # O_EP2 CO2
198 66 3 -0.325600 8.514616 30.570419 6.687646 # O_EP3 CO2
199 67 1 0.651200 21.275616 26.154421 17.348646 # C_EP1 CO2
200 67 2 -0.325600 21.316616 24.995420 17.357647 # O_EP2 CO2
201 67 3 -0.325600 21.234617 27.313419 17.339645 # O_EP3 CO2
202 68 1 0.651200 0.730617 28.839418 30.960646 # C_EP1 CO2
203 68 2 -0.325600 0.732616 28.842421 29.800646 # O_EP2 CO2
204 68 3 -0.325600 0.727616 28.837418 32.120644 # O_EP3 CO2
205 69 1 0.651200 33.581615 5.981420 25.859646 # C_EP1 CO2
206 69 2 -0.325600 34.406616 5.362420 25.327646 # O_EP2 CO2
207 69 3 -0.325600 32.757614 6.600419 26.390646 # O_EP3 CO2
208 70 1 0.651200 12.674617 5.146420 6.725646 # C_EP1 CO2
209 70 2 -0.325600 12.008617 5.597419 5.888646 # O_EP2 CO2
210 70 3 -0.325600 13.339616 4.695419 7.561646 # O_EP3 CO2
211 71 1 0.651200 5.050616 29.181419 5.730646 # C_EP1 CO2
212 71 2 -0.325600 5.802617 28.318420 5.540647 # O_EP2 CO2
213 71 3 -0.325600 4.299616 30.044420 5.920646 # O_EP3 CO2
214 72 1 0.651200 30.444618 16.996420 4.932646 # C_EP1 CO2
215 72 2 -0.325600 30.068617 17.040421 3.836646 # O_EP2 CO2
216 72 3 -0.325600 30.820618 16.952419 6.029646 # O_EP3 CO2
217 73 1 0.651200 29.682617 4.695419 27.056646 # C_EP1 CO2
218 73 2 -0.325600 29.419617 3.816420 27.765646 # O_EP2 CO2
219 73 3 -0.325600 29.945618 5.575419 26.346645 # O_EP3 CO2
220 74 1 0.651200 24.229618 5.525420 10.490646 # C_EP1 CO2
221 74 2 -0.325600 23.315617 5.332419 11.177646 # O_EP2 CO2
222 74 3 -0.325600 25.143616 5.719419 9.802646 # O_EP3 CO2
223 75 1 0.651200 9.901617 27.963419 11.351646 # C_EP1 CO2
224 75 2 -0.325600 9.815617 27.992420 12.508646 # O_EP2 CO2
225 75 3 -0.325600 9.988617 27.933418 10.195646 # O_EP3 CO2
226 76 1 0.651200 13.284616 13.147420 27.624645 # C_EP1 CO2
227 76 2 -0.325600 14.287616 12.728419 28.029648 # O_EP2 CO2
228 76 3 -0.325600 12.281617 13.565420 27.218647 # O_EP3 CO2
229 77 1 0.651200 3.845617 8.152419 24.918648 # C_EP1 CO2
230 77 2 -0.325600 4.192616 7.094419 24.592646 # O_EP2 CO2
231 77 3 -0.325600 3.498616 9.210420 25.244646 # O_EP3 CO2
232 78 1 0.651200 0.744616 7.565420 36.119648 # C_EP1 CO2
233 78 2 -0.325600 0.731616 7.562419 34.960648 # O_EP2 CO2
234 78 3 -0.325600 0.758616 7.569419 37.279648 # O_EP3 CO2
235 79 1 0.651200 14.538616 37.798420 20.184647 # C_EP1 CO2
236 79 2 -0.325600 13.832617 36.924419 19.894646 # O_EP2 CO2
237 79 3 -0.325600 15.244617 38.671421 20.473648 # O_EP3 CO2
238 80 1 0.651200 23.041615 30.280418 21.735647 # C_EP1 CO2
239 80 2 -0.325600 22.507618 30.262421 20.706646 # O_EP2 CO2
240 80 3 -0.325600 23.576618 30.298420 22.764647 # O_EP3 CO2
241 81 1 0.651200 16.660616 18.937420 22.402647 # C_EP1 CO2
242 81 2 -0.325600 17.691616 19.383419 22.115646 # O_EP2 CO2
243 81 3 -0.325600 15.628616 18.491419 22.689646 # O_EP3 CO2
244 82 1 0.651200 12.638617 4.664419 29.749645 # C_EP1 CO2
245 82 2 -0.325600 11.759616 3.927419 29.573647 # O_EP2 CO2
246 82 3 -0.325600 13.517617 5.400419 29.924644 # O_EP3 CO2
247 83 1 0.651200 21.402617 19.639420 15.254646 # C_EP1 CO2
248 83 2 -0.325600 21.369617 19.620420 14.095646 # O_EP2 CO2
249 83 3 -0.325600 21.436617 19.657419 16.414646 # O_EP3 CO2
250 84 1 0.651200 7.887617 21.232418 30.370646 # C_EP1 CO2
251 84 2 -0.325600 8.275617 22.274420 30.041647 # O_EP2 CO2
252 84 3 -0.325600 7.500616 20.189419 30.700645 # O_EP3 CO2
253 85 1 0.651200 31.333616 7.270420 32.697647 # C_EP1 CO2
254 85 2 -0.325600 31.026615 6.642420 33.623646 # O_EP2 CO2
255 85 3 -0.325600 31.640615 7.898419 31.771645 # O_EP3 CO2
256 86 1 0.651200 14.383616 2.899419 35.663647 # C_EP1 CO2
257 86 2 -0.325600 14.984616 3.010419 34.676647 # O_EP2 CO2
258 86 3 -0.325600 13.783617 2.788419 36.649647 # O_EP3 CO2
259 87 1 0.651200 36.880615 34.684418 32.019646 # C_EP1 CO2
260 87 2 -0.325600 37.608616 35.346420 32.633644 # O_EP2 CO2
261 87 3 -0.325600 36.151615 34.022419 31.405647 # O_EP3 CO2
262 88 1 0.651200 22.718616 19.923420 33.280647 # C_EP1 CO2
263 88 2 -0.325600 22.612617 19.659420 32.156647 # O_EP2 CO2
264 88 3 -0.325600 22.824615 20.188419 34.404644 # O_EP3 CO2
265 89 1 0.651200 9.158617 29.497417 3.121646 # C_EP1 CO2
266 89 2 -0.325600 9.153616 29.484421 1.961646 # O_EP2 CO2
267 89 3 -0.325600 9.162617 29.509420 4.281646 # O_EP3 CO2
268 90 1 0.651200 32.840618 30.153419 20.138645 # C_EP1 CO2
269 90 2 -0.325600 33.458618 31.011419 19.661646 # O_EP2 CO2
270 90 3 -0.325600 32.221615 29.296419 20.615646 # O_EP3 CO2
271 91 1 0.651200 17.190617 20.388420 34.148643 # C_EP1 CO2
272 91 2 -0.325600 16.942617 20.238419 35.271648 # O_EP2 CO2
273 91 3 -0.325600 17.439617 20.539419 33.025646 # O_EP3 CO2
274 92 1 0.651200 20.008617 7.341419 18.933645 # C_EP1 CO2
275 92 2 -0.325600 19.460617 6.552420 18.283646 # O_EP2 CO2
276 92 3 -0.325600 20.555614 8.131419 19.583645 # O_EP3 CO2
277 93 1 0.651200 2.470616 32.319420 29.343645 # C_EP1 CO2
278 93 2 -0.325600 3.530617 31.891420 29.540646 # O_EP2 CO2
279 93 3 -0.325600 1.410617 32.747417 29.146645 # O_EP3 CO2
280 94 1 0.651200 16.435616 33.956421 25.608646 # C_EP1 CO2
281 94 2 -0.325600 17.220615 34.810417 25.574646 # O_EP2 CO2
282 94 3 -0.325600 15.651617 33.102421 25.641647 # O_EP3 CO2
283 95 1 0.651200 24.487617 4.016419 4.871646 # C_EP1 CO2
284 95 2 -0.325600 23.817616 4.952419 5.017646 # O_EP2 CO2
285 95 3 -0.325600 25.158617 3.081419 4.726646 # O_EP3 CO2
286 96 1 0.651200 30.168617 25.394421 2.971646 # C_EP1 CO2
287 96 2 -0.325600 30.877617 24.613419 3.454646 # O_EP2 CO2
288 96 3 -0.325600 29.459618 26.175421 2.488646 # O_EP3 CO2
289 97 1 0.651200 23.771618 26.059420 9.789646 # C_EP1 CO2
290 97 2 -0.325600 23.775616 26.236420 10.935646 # O_EP2 CO2
291 97 3 -0.325600 23.767616 25.881420 8.642646 # O_EP3 CO2
292 98 1 0.651200 15.532617 36.662418 32.225647 # C_EP1 CO2
293 98 2 -0.325600 16.367617 37.441422 32.024647 # O_EP2 CO2
294 98 3 -0.325600 14.697617 35.883419 32.426647 # O_EP3 CO2
295 99 1 0.651200 12.423616 24.810419 23.129646 # C_EP1 CO2
296 99 2 -0.325600 11.416616 24.385418 23.518646 # O_EP2 CO2
297 99 3 -0.325600 13.429617 25.236418 22.741646 # O_EP3 CO2
298 100 1 0.651200 29.575617 31.278419 23.371647 # C_EP1 CO2
299 100 2 -0.325600 28.781616 31.476419 22.549646 # O_EP2 CO2
300 100 3 -0.325600 30.369616 31.079418 24.193647 # O_EP3 CO2
301 101 1 0.651200 6.235616 37.283421 7.318646 # C_EP1 CO2
302 101 2 -0.325600 5.084617 37.141418 7.295646 # O_EP2 CO2
303 101 3 -0.325600 7.386617 37.425419 7.340646 # O_EP3 CO2
304 102 1 0.651200 12.582617 20.919418 31.063644 # C_EP1 CO2
305 102 2 -0.325600 13.040617 21.936419 31.380646 # O_EP2 CO2
306 102 3 -0.325600 12.124616 19.901421 30.746647 # O_EP3 CO2
307 103 1 0.651200 21.367617 2.780419 27.419645 # C_EP1 CO2
308 103 2 -0.325600 20.618618 3.317419 26.715645 # O_EP2 CO2
309 103 3 -0.325600 22.116615 2.243419 28.123646 # O_EP3 CO2
310 104 1 0.651200 14.789618 8.252419 35.266644 # C_EP1 CO2
311 104 2 -0.325600 14.984616 9.380419 35.080647 # O_EP2 CO2
312 104 3 -0.325600 14.594617 7.124419 35.452648 # O_EP3 CO2
313 105 1 0.651200 27.663616 7.174419 9.861646 # C_EP1 CO2
314 105 2 -0.325600 28.178616 7.466419 10.859646 # O_EP2 CO2
315 105 3 -0.325600 27.148617 6.882420 8.864646 # O_EP3 CO2
316 106 1 0.651200 4.667616 32.850422 15.825645 # C_EP1 CO2
317 106 2 -0.325600 4.716616 33.222420 14.728646 # O_EP2 CO2
318 106 3 -0.325600 4.619617 32.477421 16.923645 # O_EP3 CO2
319 107 1 0.651200 6.225616 15.272419 36.681644 # C_EP1 CO2
320 107 2 -0.325600 5.560616 15.169419 37.626644 # O_EP2 CO2
321 107 3 -0.325600 6.890616 15.375420 35.736649 # O_EP3 CO2
322 108 1 0.651200 21.422617 26.350420 8.271646 # C_EP1 CO2
323 108 2 -0.325600 21.147615 26.613419 9.366646 # O_EP2 CO2
324 108 3 -0.325600 21.697617 26.086418 7.175646 # O_EP3 CO2
325 109 1 0.651200 12.011616 27.133419 34.930645 # C_EP1 CO2
326 109 2 -0.325600 12.064617 26.964418 33.783646 # O_EP2 CO2
327 109 3 -0.325600 11.957617 27.301418 36.076645 # O_EP3 CO2
328 110 1 0.651200 3.571616 23.579418 12.572646 # C_EP1 CO2
329 110 2 -0.325600 3.680617 23.629419 11.418647 # O_EP2 CO2
330 110 3 -0.325600 3.463616 23.530418 13.726645 # O_EP3 CO2
331 111 1 0.651200 33.662617 23.678419 4.524646 # C_EP1 CO2
332 111 2 -0.325600 34.328617 22.837420 4.964646 # O_EP2 CO2
333 111 3 -0.325600 32.995617 24.520418 4.084646 # O_EP3 CO2
334 112 1 0.651200 36.571617 18.972420 27.740646 # C_EP1 CO2
335 112 2 -0.325600 36.187614 19.152420 26.660645 # O_EP2 CO2
336 112 3 -0.325600 36.954617 18.792419 28.819647 # O_EP3 CO2
337 113 1 0.651200 16.646616 29.356421 17.193645 # C_EP1 CO2
338 113 2 -0.325600 16.782616 29.470421 16.047646 # O_EP2 CO2
339 113 3 -0.325600 16.509617 29.241419 18.340647 # O_EP3 CO2
340 114 1 0.651200 12.097616 31.105421 37.510647 # C_EP1 CO2
341 114 2 -0.325600 12.608616 30.322420 36.824646 # O_EP2 CO2
342 114 3 -0.325600 11.586617 31.889420 38.196648 # O_EP3 CO2
343 115 1 0.651200 4.419617 12.269420 32.075645 # C_EP1 CO2
344 115 2 -0.325600 5.549616 12.065419 32.242645 # O_EP2 CO2
345 115 3 -0.325600 3.290617 12.473420 31.907646 # O_EP3 CO2
346 116 1 0.651200 24.414616 12.420420 11.154646 # C_EP1 CO2
347 116 2 -0.325600 25.442617 11.888419 11.086646 # O_EP2 CO2
348 116 3 -0.325600 23.385616 12.952419 11.222647 # O_EP3 CO2
349 117 1 0.651200 17.851616 19.256418 29.894646 # C_EP1 CO2
350 117 2 -0.325600 17.818617 19.013420 31.028645 # O_EP2 CO2
351 117 3 -0.325600 17.883617 19.499420 28.760645 # O_EP3 CO2
352 118 1 0.651200 9.240617 33.561420 28.664646 # C_EP1 CO2
353 118 2 -0.325600 9.589616 33.312420 27.586647 # O_EP2 CO2
354 118 3 -0.325600 8.891617 33.810421 29.742645 # O_EP3 CO2
355 119 1 0.651200 17.210617 7.338419 1.998646 # C_EP1 CO2
356 119 2 -0.325600 16.968616 6.580420 2.841646 # O_EP2 CO2
357 119 3 -0.325600 17.452618 8.097419 1.155646 # O_EP3 CO2
358 120 1 0.651200 5.789617 27.688419 28.951645 # C_EP1 CO2
359 120 2 -0.325600 5.165616 27.069418 29.708645 # O_EP2 CO2
360 120 3 -0.325600 6.413617 28.307419 28.194647 # O_EP3 CO2
361 121 1 0.651200 36.701618 28.416420 36.239647 # C_EP1 CO2
362 121 2 -0.325600 36.281616 28.423420 35.157646 # O_EP2 CO2
363 121 3 -0.325600 37.121616 28.410419 37.320644 # O_EP3 CO2
364 122 1 0.651200 13.376616 32.453419 29.715645 # C_EP1 CO2
365 122 2 -0.325600 13.421617 32.365421 30.870646 # O_EP2 CO2
366 122 3 -0.325600 13.331615 32.541420 28.559647 # O_EP3 CO2
367 123 1 0.651200 24.612617 29.464418 5.220646 # C_EP1 CO2
368 123 2 -0.325600 25.113617 30.221420 4.498646 # O_EP2 CO2
369 123 3 -0.325600 24.111616 28.707418 5.943646 # O_EP3 CO2
370 124 1 0.651200 35.609619 11.102419 5.573646 # C_EP1 CO2
371 124 2 -0.325600 36.255615 11.938419 6.052646 # O_EP2 CO2
372 124 3 -0.325600 34.963615 10.266419 5.093646 # O_EP3 CO2
373 125 1 0.651200 36.766617 18.314421 37.120644 # C_EP1 CO2
374 125 2 -0.325600 37.924618 18.282419 37.066647 # O_EP2 CO2
375 125 3 -0.325600 35.607616 18.347420 37.173645 # O_EP3 CO2
376 126 1 0.651200 29.267616 12.984419 21.647646 # C_EP1 CO2
377 126 2 -0.325600 28.633615 12.047420 21.391647 # O_EP2 CO2
378 126 3 -0.325600 29.900618 13.922420 21.904644 # O_EP3 CO2
379 127 1 0.651200 16.504616 19.918419 12.268646 # C_EP1 CO2
380 127 2 -0.325600 16.583616 21.072418 12.356646 # O_EP2 CO2
381 127 3 -0.325600 16.425617 18.764420 12.180645 # O_EP3 CO2
382 128 1 0.651200 4.919617 1.524420 4.364646 # C_EP1 CO2
383 128 2 -0.325600 4.659616 1.806419 3.269646 # O_EP2 CO2
384 128 3 -0.325600 5.179616 1.242419 5.458646 # O_EP3 CO2
385 129 1 0.651200 31.676617 25.249420 6.337646 # C_EP1 CO2
386 129 2 -0.325600 32.578617 24.541418 6.513646 # O_EP2 CO2
387 129 3 -0.325600 30.775616 25.957420 6.161646 # O_EP3 CO2
388 130 1 0.651200 20.911617 29.301418 5.358646 # C_EP1 CO2
389 130 2 -0.325600 19.907618 29.673420 4.910646 # O_EP2 CO2
390 130 3 -0.325600 21.914616 28.930418 5.806646 # O_EP3 CO2
391 131 1 0.651200 16.757618 13.636419 6.500646 # C_EP1 CO2
392 131 2 -0.325600 16.655617 13.729420 5.348646 # O_EP2 CO2
393 131 3 -0.325600 16.859615 13.544420 7.652646 # O_EP3 CO2
394 132 1 0.651200 36.338615 3.444419 32.805645 # C_EP1 CO2
395 132 2 -0.325600 35.188614 3.363420 32.930645 # O_EP2 CO2
396 132 3 -0.325600 37.488617 3.525419 32.679646 # O_EP3 CO2
397 133 1 0.651200 13.285617 25.027420 36.120647 # C_EP1 CO2
398 133 2 -0.325600 13.836617 26.047421 36.100647 # O_EP2 CO2
399 133 3 -0.325600 12.733617 24.007420 36.139645 # O_EP3 CO2
400 134 1 0.651200 13.500616 38.194420 22.989645 # C_EP1 CO2
401 134 2 -0.325600 14.465617 38.239418 23.631647 # O_EP2 CO2
402 134 3 -0.325600 12.535616 38.149418 22.347645 # O_EP3 CO2
403 135 1 0.651200 4.546617 20.457420 15.366646 # C_EP1 CO2
404 135 2 -0.325600 4.590616 21.184422 16.268646 # O_EP2 CO2
405 135 3 -0.325600 4.501616 19.729420 14.463646 # O_EP3 CO2
406 136 1 0.651200 37.192616 30.657421 23.886644 # C_EP1 CO2
407 136 2 -0.325600 37.552616 29.939421 23.049644 # O_EP2 CO2
408 136 3 -0.325600 36.833618 31.376419 24.723646 # O_EP3 CO2
409 137 1 0.651200 34.243618 26.383419 5.046646 # C_EP1 CO2
410 137 2 -0.325600 34.424618 26.104420 6.157646 # O_EP2 CO2
411 137 3 -0.325600 34.062618 26.662418 3.934646 # O_EP3 CO2
412 138 1 0.651200 33.607616 7.586420 20.161646 # C_EP1 CO2
413 138 2 -0.325600 33.644615 7.517419 21.318645 # O_EP2 CO2
414 138 3 -0.325600 33.570618 7.656419 19.003647 # O_EP3 CO2
415 139 1 0.651200 2.396617 18.828419 23.624647 # C_EP1 CO2
416 139 2 -0.325600 2.341616 18.369419 22.560646 # O_EP2 CO2
417 139 3 -0.325600 2.451617 19.288420 24.688646 # O_EP3 CO2
418 140 1 0.651200 25.111616 17.484419 10.257646 # C_EP1 CO2
419 140 2 -0.325600 24.094618 17.014420 9.956646 # O_EP2 CO2
420 140 3 -0.325600 26.128616 17.953419 10.559646 # O_EP3 CO2
421 141 1 0.651200 8.134617 13.256420 11.908646 # C_EP1 CO2
422 141 2 -0.325600 6.984616 13.130419 11.827646 # O_EP2 CO2
423 141 3 -0.325600 9.285616 13.383419 11.989646 # O_EP3 CO2
424 142 1 0.651200 30.037617 34.543419 28.044645 # C_EP1 CO2
425 142 2 -0.325600 29.946615 34.156422 29.134645 # O_EP2 CO2
426 142 3 -0.325600 30.128616 34.930420 26.955645 # O_EP3 CO2
427 143 1 0.651200 25.400618 32.202419 6.391646 # C_EP1 CO2
428 143 2 -0.325600 25.394615 31.630419 7.401646 # O_EP2 CO2
429 143 3 -0.325600 25.406616 32.774422 5.382646 # O_EP3 CO2
430 144 1 0.651200 32.140617 13.664419 7.925646 # C_EP1 CO2
431 144 2 -0.325600 31.937616 14.429419 8.774646 # O_EP2 CO2
432 144 3 -0.325600 32.342617 12.899419 7.077646 # O_EP3 CO2
433 145 1 0.651200 7.835617 26.017420 16.990646 # C_EP1 CO2
434 145 2 -0.325600 7.900617 26.001419 15.832645 # O_EP2 CO2
435 145 3 -0.325600 7.771616 26.033421 18.148647 # O_EP3 CO2
436 146 1 0.651200 24.387617 3.728420 2.124646 # C_EP1 CO2
437 146 2 -0.325600 24.905617 4.724420 1.832646 # O_EP2 CO2
438 146 3 -0.325600 23.870617 2.732419 2.416646 # O_EP3 CO2
439 147 1 0.651200 23.737617 28.026419 25.606647 # C_EP1 CO2
440 147 2 -0.325600 23.608616 28.198418 26.746645 # O_EP2 CO2
441 147 3 -0.325600 23.865616 27.853420 24.466646 # O_EP3 CO2
442 148 1 0.651200 25.955618 32.098419 12.758646 # C_EP1 CO2
443 148 2 -0.325600 26.271618 32.716419 13.688646 # O_EP2 CO2
444 148 3 -0.325600 25.639618 31.480419 11.829645 # O_EP3 CO2
445 149 1 0.651200 29.464617 13.751420 31.524647 # C_EP1 CO2
446 149 2 -0.325600 28.496616 13.726419 30.885647 # O_EP2 CO2
447 149 3 -0.325600 30.431616 13.776419 32.163647 # O_EP3 CO2
448 150 1 0.651200 16.468616 9.060419 19.782646 # C_EP1 CO2
449 150 2 -0.325600 15.325617 8.905419 19.905645 # O_EP2 CO2
450 150 3 -0.325600 17.611616 9.215420 19.659645 # O_EP3 CO2
451 151 1 0.651200 15.525617 31.086418 33.552647 # C_EP1 CO2
452 151 2 -0.325600 15.371617 31.226421 34.693645 # O_EP2 CO2
453 151 3 -0.325600 15.679617 30.946419 32.411648 # O_EP3 CO2
454 152 1 0.651200 27.510616 12.662419 34.813644 # C_EP1 CO2
455 152 2 -0.325600 28.427618 13.365419 34.711647 # O_EP2 CO2
456 152 3 -0.325600 26.593616 11.959419 34.915646 # O_EP3 CO2
457 153 1 0.651200 13.753616 4.997419 24.487646 # C_EP1 CO2
458 153 2 -0.325600 13.693617 5.150419 23.339645 # O_EP2 CO2
459 153 3 -0.325600 13.812617 4.843420 25.635645 # O_EP3 CO2
460 154 1 0.651200 16.034616 23.726421 17.077646 # C_EP1 CO2
461 154 2 -0.325600 15.956616 22.670420 16.604647 # O_EP2 CO2
462 154 3 -0.325600 16.112616 24.782419 17.551647 # O_EP3 CO2
463 155 1 0.651200 35.399616 4.992419 6.598646 # C_EP1 CO2
464 155 2 -0.325600 35.770615 4.130420 5.915646 # O_EP2 CO2
465 155 3 -0.325600 35.029617 5.853419 7.281646 # O_EP3 CO2
466 156 1 0.651200 21.409616 11.790420 8.394646 # C_EP1 CO2
467 156 2 -0.325600 20.933617 11.454419 9.397646 # O_EP2 CO2
468 156 3 -0.325600 21.885616 12.127419 7.391646 # O_EP3 CO2
469 157 1 0.651200 24.051617 9.911419 13.409645 # C_EP1 CO2
470 157 2 -0.325600 23.648617 10.104419 12.339645 # O_EP2 CO2
471 157 3 -0.325600 24.455616 9.717419 14.480646 # O_EP3 CO2
472 158 1 0.651200 20.589617 1.920419 8.943645 # C_EP1 CO2
473 158 2 -0.325600 20.288618 1.361419 9.914646 # O_EP2 CO2
474 158 3 -0.325600 20.890617 2.479419 7.973646 # O_EP3 CO2
475 159 1 0.651200 10.216617 35.305420 19.338646 # C_EP1 CO2
476 159 2 -0.325600 10.271616 35.266418 20.496645 # O_EP2 CO2
477 159 3 -0.325600 10.161617 35.344421 18.180645 # O_EP3 CO2
478 160 1 0.651200 6.501616 30.155420 1.831646 # C_EP1 CO2
479 160 2 -0.325600 6.494617 30.078419 0.674646 # O_EP2 CO2
480 160 3 -0.325600 6.508616 30.233419 2.989646 # O_EP3 CO2
481 161 1 0.651200 21.679615 3.291420 17.636646 # C_EP1 CO2
482 161 2 -0.325600 20.608616 3.539419 17.265646 # O_EP2 CO2
483 161 3 -0.325600 22.749617 3.043419 18.008646 # O_EP3 CO2
484 162 1 0.651200 17.114616 23.825418 20.385647 # C_EP1 CO2
485 162 2 -0.325600 16.974617 23.225420 21.368647 # O_EP2 CO2
486 162 3 -0.325600 17.255615 24.425419 19.402645 # O_EP3 CO2
487 163 1 0.651200 19.598618 3.090420 5.109646 # C_EP1 CO2
488 163 2 -0.325600 20.451618 3.433419 4.402646 # O_EP2 CO2
489 163 3 -0.325600 18.745617 2.748419 5.817646 # O_EP3 CO2
490 164 1 0.651200 32.506615 21.471420 4.651646 # C_EP1 CO2
491 164 2 -0.325600 32.612617 21.646420 3.510646 # O_EP2 CO2
492 164 3 -0.325600 32.400620 21.295418 5.793646 # O_EP3 CO2
493 165 1 0.651200 32.341618 1.989419 25.498646 # C_EP1 CO2
494 165 2 -0.325600 32.377617 2.088419 24.343645 # O_EP2 CO2
495 165 3 -0.325600 32.305618 1.889419 26.654646 # O_EP3 CO2
496 166 1 0.651200 28.754616 32.320419 18.410646 # C_EP1 CO2
497 166 2 -0.325600 29.103619 32.518421 17.322647 # O_EP2 CO2
498 166 3 -0.325600 28.404617 32.122417 19.498646 # O_EP3 CO2
499 167 1 0.651200 12.439617 34.492420 32.282646 # C_EP1 CO2
500 167 2 -0.325600 12.268616 33.529419 32.906647 # O_EP2 CO2
501 167 3 -0.325600 12.611617 35.455421 31.659645 # O_EP3 CO2
502 168 1 0.651200 4.730616 23.639420 3.896646 # C_EP1 CO2
503 168 2 -0.325600 4.180616 24.404419 3.219646 # O_EP2 CO2
504 168 3 -0.325600 5.280616 22.875420 4.573646 # O_EP3 CO2
505 169 1 0.651200 3.747616 36.989418 30.918646 # C_EP1 CO2
506 169 2 -0.325600 2.856616 36.531418 30.332645 # O_EP2 CO2
507 169 3 -0.325600 4.637616 37.447418 31.503647 # O_EP3 CO2
508 170 1 0.651200 12.156616 10.952419 2.671646 # C_EP1 CO2
509 170 2 -0.325600 11.951617 9.810420 2.656646 # O_EP2 CO2
510 170 3 -0.325600 12.361617 12.093420 2.687646 # O_EP3 CO2
511 171 1 0.651200 32.762615 18.928419 3.994646 # C_EP1 CO2
512 171 2 -0.325600 32.051617 18.563419 4.835646 # O_EP2 CO2
513 171 3 -0.325600 33.472618 19.292419 3.153646 # O_EP3 CO2
514 172 1 0.651200 4.276617 4.806419 3.536646 # C_EP1 CO2
515 172 2 -0.325600 5.187616 5.087419 4.198646 # O_EP2 CO2
516 172 3 -0.325600 3.365617 4.526419 2.875646 # O_EP3 CO2
517 173 1 0.651200 38.294617 36.466419 30.670645 # C_EP1 CO2
518 173 2 -0.325600 38.332619 37.549419 31.082647 # O_EP2 CO2
519 173 3 -0.325600 38.257614 35.382420 30.259645 # O_EP3 CO2
520 174 1 0.651200 10.666616 6.402419 25.032646 # C_EP1 CO2
521 174 2 -0.325600 10.613617 5.641419 25.906647 # O_EP2 CO2
522 174 3 -0.325600 10.720616 7.163420 24.158648 # O_EP3 CO2
523 175 1 0.651200 24.958618 25.483419 1.940646 # C_EP1 CO2
524 175 2 -0.325600 25.977615 25.732420 2.434646 # O_EP2 CO2
525 175 3 -0.325600 23.938616 25.235420 1.446646 # O_EP3 CO2
526 176 1 0.651200 23.988617 7.122419 20.131645 # C_EP1 CO2
527 176 2 -0.325600 24.398615 7.293419 19.059647 # O_EP2 CO2
528 176 3 -0.325600 23.578617 6.951420 21.203648 # O_EP3 CO2
529 177 1 0.651200 1.163616 4.440419 36.417648 # C_EP1 CO2
530 177 2 -0.325600 1.597617 4.227419 35.363647 # O_EP2 CO2
531 177 3 -0.325600 0.728616 4.654419 37.471645 # O_EP3 CO2
532 178 1 0.651200 23.656616 28.843420 18.882647 # C_EP1 CO2
533 178 2 -0.325600 24.175615 29.859419 19.091646 # O_EP2 CO2
534 178 3 -0.325600 23.138617 27.827419 18.674644 # O_EP3 CO2
535 179 1 0.651200 17.232616 29.554420 4.983646 # C_EP1 CO2
536 179 2 -0.325600 17.087616 29.175419 6.069646 # O_EP2 CO2
537 179 3 -0.325600 17.378616 29.933418 3.896646 # O_EP3 CO2
538 180 1 0.651200 31.567616 31.479418 31.916647 # C_EP1 CO2
539 180 2 -0.325600 32.096619 30.516418 31.543646 # O_EP2 CO2
540 180 3 -0.325600 31.038616 32.442421 32.289646 # O_EP3 CO2
541 181 1 0.651200 9.495617 1.460419 26.445646 # C_EP1 CO2
542 181 2 -0.325600 8.774616 1.212419 27.319645 # O_EP2 CO2
543 181 3 -0.325600 10.215616 1.708419 25.570644 # O_EP3 CO2
544 182 1 0.651200 2.436616 18.203419 3.354646 # C_EP1 CO2
545 182 2 -0.325600 1.785616 18.822420 4.089646 # O_EP2 CO2
546 182 3 -0.325600 3.087616 17.585419 2.619646 # O_EP3 CO2
547 183 1 0.651200 37.236618 21.287420 23.435646 # C_EP1 CO2
548 183 2 -0.325600 36.145615 21.587420 23.180647 # O_EP2 CO2
549 183 3 -0.325600 38.328617 20.987419 23.689648 # O_EP3 CO2
550 184 1 0.651200 36.242615 24.412420 3.967646 # C_EP1 CO2
551 184 2 -0.325600 36.700615 24.319420 5.028646 # O_EP2 CO2
552 184 3 -0.325600 35.784615 24.505421 2.905646 # O_EP3 CO2
553 185 1 0.651200 8.009617 6.614419 33.025646 # C_EP1 CO2
554 185 2 -0.325600 7.828617 5.727419 32.300648 # O_EP2 CO2
555 185 3 -0.325600 8.189616 7.502419 33.750645 # O_EP3 CO2
556 186 1 0.651200 24.631617 8.813419 29.501646 # C_EP1 CO2
557 186 2 -0.325600 24.132616 9.154419 28.511646 # O_EP2 CO2
558 186 3 -0.325600 25.130617 8.473419 30.491646 # O_EP3 CO2
559 187 1 0.651200 21.863615 29.775419 8.989646 # C_EP1 CO2
560 187 2 -0.325600 21.355618 29.501419 7.983646 # O_EP2 CO2
561 187 3 -0.325600 22.371616 30.049419 9.995646 # O_EP3 CO2
562 188 1 0.651200 13.542616 19.985420 9.560646 # C_EP1 CO2
563 188 2 -0.325600 13.814616 18.859421 9.622646 # O_EP2 CO2
564 188 3 -0.325600 13.269616 21.111420 9.497646 # O_EP3 CO2
565 189 1 0.651200 29.645617 18.479420 10.147646 # C_EP1 CO2
566 189 2 -0.325600 29.719618 18.490419 8.990646 # O_EP2 CO2
567 189 3 -0.325600 29.570618 18.467419 11.305646 # O_EP3 CO2
568 190 1 0.651200 30.256617 19.820419 2.288646 # C_EP1 CO2
569 190 2 -0.325600 30.543615 20.129417 3.369646 # O_EP2 CO2
570 190 3 -0.325600 29.970617 19.512421 1.208646 # O_EP3 CO2
571 191 1 0.651200 22.250616 38.565418 4.645646 # C_EP1 CO2
572 191 2 -0.325600 22.317617 38.647419 3.490646 # O_EP2 CO2
573 191 3 -0.325600 22.184618 38.483421 5.800646 # O_EP3 CO2
574 192 1 0.651200 8.212616 20.978420 11.912646 # C_EP1 CO2
575 192 2 -0.325600 8.565617 21.092419 10.813646 # O_EP2 CO2
576 192 3 -0.325600 7.859616 20.864420 13.012647 # O_EP3 CO2
577 193 1 0.651200 18.567617 20.467419 1.466646 # C_EP1 CO2
578 193 2 -0.325600 19.239616 19.949419 0.675646 # O_EP2 CO2
579 193 3 -0.325600 17.894615 20.985420 2.256646 # O_EP3 CO2
580 194 1 0.651200 7.761617 32.338417 37.443645 # C_EP1 CO2
581 194 2 -0.325600 7.305617 33.006420 36.612648 # O_EP2 CO2
582 194 3 -0.325600 8.217617 31.670420 38.275646 # O_EP3 CO2
583 195 1 0.651200 13.309617 26.273420 8.531646 # C_EP1 CO2
584 195 2 -0.325600 13.778616 25.220421 8.653646 # O_EP2 CO2
585 195 3 -0.325600 12.839617 27.327419 8.409646 # O_EP3 CO2
586 196 1 0.651200 8.599616 19.510420 22.426645 # C_EP1 CO2
587 196 2 -0.325600 8.644617 19.548420 21.267645 # O_EP2 CO2
588 196 3 -0.325600 8.555616 19.471418 23.584648 # O_EP3 CO2
589 197 1 0.651200 37.924618 33.989418 34.366646 # C_EP1 CO2
590 197 2 -0.325600 37.520615 34.669418 35.215645 # O_EP2 CO2
591 197 3 -0.325600 38.327618 33.309418 33.517647 # O_EP3 CO2
592 198 1 0.651200 18.341616 25.190420 23.572645 # C_EP1 CO2
593 198 2 -0.325600 17.667616 25.395420 22.651646 # O_EP2 CO2
594 198 3 -0.325600 19.015615 24.984419 24.494646 # O_EP3 CO2
595 199 1 0.651200 16.494616 4.283420 11.884646 # C_EP1 CO2
596 199 2 -0.325600 16.992617 4.621419 10.892647 # O_EP2 CO2
597 199 3 -0.325600 15.996617 3.945420 12.875647 # O_EP3 CO2
598 200 1 0.651200 35.559616 21.082420 30.487648 # C_EP1 CO2
599 200 2 -0.325600 35.001617 22.025417 30.106647 # O_EP2 CO2
600 200 3 -0.325600 36.117615 20.140419 30.868647 # O_EP3 CO2
601 201 1 0.651200 18.862617 17.599419 16.429646 # C_EP1 CO2
602 201 2 -0.325600 17.737616 17.533419 16.155645 # O_EP2 CO2
603 201 3 -0.325600 19.987617 17.666420 16.702646 # O_EP3 CO2
604 202 1 0.651200 16.103617 22.438419 1.962646 # C_EP1 CO2
605 202 2 -0.325600 17.066616 23.022421 2.237646 # O_EP2 CO2
606 202 3 -0.325600 15.139617 21.853418 1.688646 # O_EP3 CO2
607 203 1 0.651200 19.089617 29.924419 7.419646 # C_EP1 CO2
608 203 2 -0.325600 19.212616 29.016418 8.129646 # O_EP2 CO2
609 203 3 -0.325600 18.965616 30.833418 6.709646 # O_EP3 CO2
610 204 1 0.651200 20.011616 3.409419 10.667646 # C_EP1 CO2
611 204 2 -0.325600 19.478617 3.843420 9.732646 # O_EP2 CO2
612 204 3 -0.325600 20.544617 2.976419 11.602646 # O_EP3 CO2
613 205 1 0.651200 3.581617 19.974419 2.612646 # C_EP1 CO2
614 205 2 -0.325600 3.575616 19.486420 1.559646 # O_EP2 CO2
615 205 3 -0.325600 3.587616 20.461418 3.665646 # O_EP3 CO2
616 206 1 0.651200 36.747616 24.011419 35.842644 # C_EP1 CO2
617 206 2 -0.325600 37.325615 23.207418 35.238644 # O_EP2 CO2
618 206 3 -0.325600 36.169617 24.815418 36.447647 # O_EP3 CO2
619 207 1 0.651200 3.262616 27.131420 26.806644 # C_EP1 CO2
620 207 2 -0.325600 2.689616 26.631420 25.931646 # O_EP2 CO2
621 207 3 -0.325600 3.836617 27.630421 27.682646 # O_EP3 CO2
622 208 1 0.651200 30.743616 33.506420 25.007647 # C_EP1 CO2
623 208 2 -0.325600 29.763618 33.519421 24.386646 # O_EP2 CO2
624 208 3 -0.325600 31.722618 33.492420 25.627647 # O_EP3 CO2
625 209 1 0.651200 9.152617 13.543420 6.228646 # C_EP1 CO2
626 209 2 -0.325600 10.046617 14.274420 6.333646 # O_EP2 CO2
627 209 3 -0.325600 8.257617 12.812419 6.123646 # O_EP3 CO2
628 210 1 0.651200 6.804616 15.799419 28.875647 # C_EP1 CO2
629 210 2 -0.325600 6.090617 15.419420 28.044645 # O_EP2 CO2
630 210 3 -0.325600 7.519617 16.179420 29.706646 # O_EP3 CO2
631 211 1 0.651200 7.711617 25.811420 30.088646 # C_EP1 CO2
632 211 2 -0.325600 7.336617 26.880419 30.339645 # O_EP2 CO2
633 211 3 -0.325600 8.086617 24.742420 29.837646 # O_EP3 CO2
634 212 1 0.651200 25.753616 11.373420 16.055645 # C_EP1 CO2
635 212 2 -0.325600 26.450617 12.082419 15.458646 # O_EP2 CO2
636 212 3 -0.325600 25.055616 10.664419 16.652645 # O_EP3 CO2
637 213 1 0.651200 36.439617 26.685419 16.383646 # C_EP1 CO2
638 213 2 -0.325600 35.723618 26.822418 17.286646 # O_EP2 CO2
639 213 3 -0.325600 37.155617 26.548420 15.481646 # O_EP3 CO2
640 214 1 0.651200 5.828617 26.430418 20.597647 # C_EP1 CO2
641 214 2 -0.325600 5.004616 27.029419 21.153645 # O_EP2 CO2
642 214 3 -0.325600 6.651617 25.831421 20.042646 # O_EP3 CO2
643 215 1 0.651200 6.720616 32.799419 24.064646 # C_EP1 CO2
644 215 2 -0.325600 6.987617 32.846420 22.936647 # O_EP2 CO2
645 215 3 -0.325600 6.453617 32.752419 25.192646 # O_EP3 CO2
646 216 1 0.651200 19.424616 18.502419 12.486647 # C_EP1 CO2
647 216 2 -0.325600 20.003616 19.455420 12.167645 # O_EP2 CO2
648 216 3 -0.325600 18.846617 17.548420 12.804646 # O_EP3 CO2
649 217 1 0.651200 8.247616 37.793419 10.483646 # C_EP1 CO2
650 217 2 -0.325600 8.657617 38.282417 11.451646 # O_EP2 CO2
651 217 3 -0.325600 7.838616 37.303421 9.514647 # O_EP3 CO2
652 218 1 0.651200 20.626617 29.049419 33.869644 # C_EP1 CO2
653 218 2 -0.325600 20.007618 28.921421 34.842648 # O_EP2 CO2
654 218 3 -0.325600 21.244617 29.177420 32.896645 # O_EP3 CO2
655 219 1 0.651200 35.683617 2.846420 13.698646 # C_EP1 CO2
656 219 2 -0.325600 36.232616 1.834419 13.552646 # O_EP2 CO2
657 219 3 -0.325600 35.134617 3.857419 13.843646 # O_EP3 CO2
658 220 1 0.651200 32.977615 28.975420 17.019646 # C_EP1 CO2
659 220 2 -0.325600 32.990616 29.701420 17.923645 # O_EP2 CO2
660 220 3 -0.325600 32.964615 28.249418 16.115646 # O_EP3 CO2
661 221 1 0.651200 17.280617 26.907421 34.462646 # C_EP1 CO2
662 221 2 -0.325600 17.891617 26.847420 33.478645 # O_EP2 CO2
663 221 3 -0.325600 16.669617 26.966419 35.447647 # O_EP3 CO2
664 222 1 0.651200 12.905617 3.601419 16.300646 # C_EP1 CO2
665 222 2 -0.325600 12.388617 3.429420 15.276647 # O_EP2 CO2
666 222 3 -0.325600 13.422617 3.773420 17.324646 # O_EP3 CO2
667 223 1 0.651200 33.845615 37.704422 30.302647 # C_EP1 CO2
668 223 2 -0.325600 33.971619 37.166420 29.282646 # O_EP2 CO2
669 223 3 -0.325600 33.718616 38.242420 31.322647 # O_EP3 CO2
670 224 1 0.651200 37.698616 25.830420 29.105646 # C_EP1 CO2
671 224 2 -0.325600 38.368614 26.717419 29.436646 # O_EP2 CO2
672 224 3 -0.325600 37.027618 24.943419 28.773647 # O_EP3 CO2
673 225 1 0.651200 21.377617 6.266419 9.137646 # C_EP1 CO2
674 225 2 -0.325600 21.308617 6.354420 10.291645 # O_EP2 CO2
675 225 3 -0.325600 21.446617 6.178420 7.982646 # O_EP3 CO2
676 226 1 0.651200 34.148617 37.516418 12.631646 # C_EP1 CO2
677 226 2 -0.325600 34.564617 38.154419 11.755647 # O_EP2 CO2
678 226 3 -0.325600 33.732616 36.879421 13.506646 # O_EP3 CO2
679 227 1 0.651200 28.298616 28.567419 20.504646 # C_EP1 CO2
680 227 2 -0.325600 27.901615 28.543419 21.593647 # O_EP2 CO2
681 227 3 -0.325600 28.695618 28.591419 19.414646 # O_EP3 CO2
682 228 1 0.651200 36.682617 32.683418 7.564646 # C_EP1 CO2
683 228 2 -0.325600 36.668617 32.908421 8.702646 # O_EP2 CO2
684 228 3 -0.325600 36.697617 32.459419 6.426646 # O_EP3 CO2
685 229 1 0.651200 1.103616 3.583419 5.786646 # C_EP1 CO2
686 229 2 -0.325600 1.479616 3.884419 6.841646 # O_EP2 CO2
687 229 3 -0.325600 0.727616 3.282419 4.731646 # O_EP3 CO2
688 230 1 0.651200 1.101617 26.927418 36.647648 # C_EP1 CO2
689 230 2 -0.325600 0.744616 28.029421 36.701645 # O_EP2 CO2
690 230 3 -0.325600 1.458616 25.824421 36.594646 # O_EP3 CO2
691 231 1 0.651200 15.036616 18.373419 28.063644 # C_EP1 CO2
692 231 2 -0.325600 14.385616 17.416420 27.989645 # O_EP2 CO2
693 231 3 -0.325600 15.687617 19.330420 28.137646 # O_EP3 CO2
694 232 1 0.651200 4.285616 13.547420 20.095646 # C_EP1 CO2
695 232 2 -0.325600 3.967617 12.869419 20.982647 # O_EP2 CO2
696 232 3 -0.325600 4.603617 14.224420 19.209646 # O_EP3 CO2
697 233 1 0.651200 3.913617 26.596420 3.172646 # C_EP1 CO2
698 233 2 -0.325600 3.907616 26.645420 4.331646 # O_EP2 CO2
699 233 3 -0.325600 3.919617 26.548420 2.013646 # O_EP3 CO2
700 234 1 0.651200 30.825617 36.183418 19.371645 # C_EP1 CO2
701 234 2 -0.325600 30.843616 36.185421 20.530645 # O_EP2 CO2
702 234 3 -0.325600 30.807617 36.182419 18.211647 # O_EP3 CO2
703 235 1 0.651200 7.232616 3.627419 5.978646 # C_EP1 CO2
704 235 2 -0.325600 7.196617 3.991419 4.878646 # O_EP2 CO2
705 235 3 -0.325600 7.269617 3.263420 7.079646 # O_EP3 CO2
706 236 1 0.651200 13.589617 29.144421 33.870647 # C_EP1 CO2
707 236 2 -0.325600 14.152617 28.690418 32.964645 # O_EP2 CO2
708 236 3 -0.325600 13.025617 29.599419 34.776646 # O_EP3 CO2
709 237 1 0.651200 10.130616 30.939419 33.425644 # C_EP1 CO2
710 237 2 -0.325600 11.084616 31.149418 34.052647 # O_EP2 CO2
711 237 3 -0.325600 9.177616 30.729420 32.798645 # O_EP3 CO2
712 238 1 0.651200 34.495617 37.011417 6.884646 # C_EP1 CO2
713 238 2 -0.325600 34.154617 37.037422 5.775646 # O_EP2 CO2
714 238 3 -0.325600 34.835617 36.985420 7.993646 # O_EP3 CO2
715 239 1 0.651200 24.723616 14.092419 2.973646 # C_EP1 CO2
716 239 2 -0.325600 24.744616 14.604420 4.014646 # O_EP2 CO2
717 239 3 -0.325600 24.703617 13.579420 1.933646 # O_EP3 CO2
718 240 1 0.651200 25.423618 2.360420 15.617646 # C_EP1 CO2
719 240 2 -0.325600 25.652617 1.238419 15.430646 # O_EP2 CO2
720 240 3 -0.325600 25.195618 3.482419 15.804646 # O_EP3 CO2
721 241 1 0.651200 17.435616 37.668419 12.743646 # C_EP1 CO2
722 241 2 -0.325600 18.172617 37.481419 11.867646 # O_EP2 CO2
723 241 3 -0.325600 16.698616 37.855419 13.619646 # O_EP3 CO2
724 242 1 0.651200 25.078617 38.054420 15.307646 # C_EP1 CO2
725 242 2 -0.325600 25.203617 38.364418 14.197646 # O_EP2 CO2
726 242 3 -0.325600 24.952618 37.743420 16.418646 # O_EP3 CO2
727 243 1 0.651200 30.620615 12.282419 9.387646 # C_EP1 CO2
728 243 2 -0.325600 31.752617 12.194419 9.624645 # O_EP2 CO2
729 243 3 -0.325600 29.488617 12.370420 9.150646 # O_EP3 CO2
730 244 1 0.651200 38.268616 11.147419 19.633646 # C_EP1 CO2
731 244 2 -0.325600 38.210617 11.926420 18.776646 # O_EP2 CO2
732 244 3 -0.325600 38.327618 10.368420 20.491646 # O_EP3 CO2
733 245 1 0.651200 36.046616 16.751419 3.455646 # C_EP1 CO2
734 245 2 -0.325600 35.124619 16.458420 2.814646 # O_EP2 CO2
735 245 3 -0.325600 36.967617 17.044418 4.095646 # O_EP3 CO2
736 246 1 0.651200 6.863617 24.154419 27.495647 # C_EP1 CO2
737 246 2 -0.325600 6.925616 23.106421 27.001646 # O_EP2 CO2
738 246 3 -0.325600 6.800616 25.202419 27.990646 # O_EP3 CO2
739 247 1 0.651200 5.392616 3.238419 13.825645 # C_EP1 CO2
740 247 2 -0.325600 5.743616 3.283419 14.930647 # O_EP2 CO2
741 247 3 -0.325600 5.041616 3.192420 12.721645 # O_EP3 CO2
742 248 1 0.651200 2.496617 20.565418 27.447645 # C_EP1 CO2
743 248 2 -0.325600 3.436616 20.838421 28.069647 # O_EP2 CO2
744 248 3 -0.325600 1.556617 20.292419 26.824646 # O_EP3 CO2
745 249 1 0.651200 28.895617 37.520420 23.401646 # C_EP1 CO2
746 249 2 -0.325600 29.296618 37.256420 22.345646 # O_EP2 CO2
747 249 3 -0.325600 28.494616 37.784420 24.456646 # O_EP3 CO2
748 250 1 0.651200 5.847617 25.867420 34.851646 # C_EP1 CO2
749 250 2 -0.325600 6.010616 25.832420 35.999645 # O_EP2 CO2
750 250 3 -0.325600 5.685616 25.903419 33.703648 # O_EP3 CO2
751 251 1 0.651200 27.166616 23.709419 12.343646 # C_EP1 CO2
752 251 2 -0.325600 27.605618 22.838419 11.716646 # O_EP2 CO2
753 251 3 -0.325600 26.727617 24.581421 12.970646 # O_EP3 CO2
754 252 1 0.651200 8.744617 26.176418 25.769646 # C_EP1 CO2
755 252 2 -0.325600 7.986617 26.606419 26.535646 # O_EP2 CO2
756 252 3 -0.325600 9.501616 25.746420 25.003645 # O_EP3 CO2
757 253 1 0.651200 38.182617 24.144421 2.711646 # C_EP1 CO2
758 253 2 -0.325600 38.316616 25.119419 3.325646 # O_EP2 CO2
759 253 3 -0.325600 38.047615 23.170418 2.097646 # O_EP3 CO2
760 254 1 0.651200 10.694617 26.809422 6.250646 # C_EP1 CO2
761 254 2 -0.325600 10.636617 26.853418 7.408646 # O_EP2 CO2
762 254 3 -0.325600 10.751617 26.766418 5.092646 # O_EP3 CO2
763 255 1 0.651200 16.541616 4.539419 32.076645 # C_EP1 CO2
764 255 2 -0.325600 16.591618 4.704419 30.929646 # O_EP2 CO2
765 255 3 -0.325600 16.491617 4.375419 33.223644 # O_EP3 CO2
766 256 1 0.651200 12.585616 34.639420 28.726646 # C_EP1 CO2
767 256 2 -0.325600 11.658616 34.577419 29.419647 # O_EP2 CO2
768 256 3 -0.325600 13.513617 34.700420 28.032646 # O_EP3 CO2
769 257 1 0.651200 10.294617 20.441420 18.385647 # C_EP1 CO2
770 257 2 -0.325600 11.301617 20.974419 18.165646 # O_EP2 CO2
771 257 3 -0.325600 9.287617 19.909420 18.605646 # O_EP3 CO2
772 258 1 0.651200 32.903618 2.387419 14.291647 # C_EP1 CO2
773 258 2 -0.325600 32.480618 3.392420 14.685646 # O_EP2 CO2
774 258 3 -0.325600 33.326614 1.381419 13.897646 # O_EP3 CO2
775 259 1 0.651200 21.298616 6.356420 27.929647 # C_EP1 CO2
776 259 2 -0.325600 20.901615 6.686419 28.968647 # O_EP2 CO2
777 259 3 -0.325600 21.695616 6.026420 26.890644 # O_EP3 CO2
778 260 1 0.651200 36.288616 4.396420 1.806646 # C_EP1 CO2
779 260 2 -0.325600 36.436619 3.432419 2.434646 # O_EP2 CO2
780 260 3 -0.325600 36.139618 5.360419 1.179646 # O_EP3 CO2
781 261 1 0.651200 28.798616 21.368420 16.267647 # C_EP1 CO2
782 261 2 -0.325600 29.631617 22.078419 16.648647 # O_EP2 CO2
783 261 3 -0.325600 27.964615 20.657421 15.886646 # O_EP3 CO2
784 262 1 0.651200 28.240616 26.427420 18.977646 # C_EP1 CO2
785 262 2 -0.325600 28.544617 26.902420 17.963646 # O_EP2 CO2
786 262 3 -0.325600 27.935617 25.952419 19.990646 # O_EP3 CO2
787 263 1 0.651200 28.572617 30.762421 13.984646 # C_EP1 CO2
788 263 2 -0.325600 28.841618 29.675419 14.284647 # O_EP2 CO2
789 263 3 -0.325600 28.303616 31.850418 13.683645 # O_EP3 CO2
790 264 1 0.651200 26.438616 19.415419 17.891645 # C_EP1 CO2
791 264 2 -0.325600 27.016617 18.619419 17.278646 # O_EP2 CO2
792 264 3 -0.325600 25.859615 20.212420 18.505646 # O_EP3 CO2
793 265 1 0.651200 15.236616 20.621418 32.332645 # C_EP1 CO2
794 265 2 -0.325600 14.954617 20.584419 33.457645 # O_EP2 CO2
795 265 3 -0.325600 15.517616 20.659420 31.207645 # O_EP3 CO2
796 266 1 0.651200 27.333618 34.650417 17.681646 # C_EP1 CO2
797 266 2 -0.325600 27.350616 34.937420 16.557646 # O_EP2 CO2
798 266 3 -0.325600 27.316616 34.364418 18.805645 # O_EP3 CO2
799 267 1 0.651200 11.640616 27.710419 18.947645 # C_EP1 CO2
800 267 2 -0.325600 10.609616 27.454418 19.412647 # O_EP2 CO2
801 267 3 -0.325600 12.671616 27.967419 18.481646 # O_EP3 CO2
802 268 1 0.651200 36.970615 15.121420 15.273646 # C_EP1 CO2
803 268 2 -0.325600 35.858616 14.943419 15.552646 # O_EP2 CO2
804 268 3 -0.325600 38.082615 15.298419 14.993647 # O_EP3 CO2
805 269 1 0.651200 14.451617 26.497419 18.320646 # C_EP1 CO2
806 269 2 -0.325600 14.842616 27.522419 18.697645 # O_EP2 CO2
807 269 3 -0.325600 14.060616 25.472420 17.943645 # O_EP3 CO2
808 270 1 0.651200 34.617619 12.955420 37.087646 # C_EP1 CO2
809 270 2 -0.325600 34.249615 12.352419 36.167645 # O_EP2 CO2
810 270 3 -0.325600 34.985615 13.558420 38.006645 # O_EP3 CO2
811 271 1 0.651200 6.580616 30.349419 8.089646 # C_EP1 CO2
812 271 2 -0.325600 7.129617 29.842419 8.976646 # O_EP2 CO2
813 271 3 -0.325600 6.031616 30.856419 7.202646 # O_EP3 CO2
814 272 1 0.651200 7.370617 20.755421 19.930647 # C_EP1 CO2
815 272 2 -0.325600 6.683617 19.823420 19.993647 # O_EP2 CO2
816 272 3 -0.325600 8.058617 21.688419 19.868645 # O_EP3 CO2
817 273 1 0.651200 33.337616 27.764420 8.363647 # C_EP1 CO2
818 273 2 -0.325600 33.103615 27.471418 7.266646 # O_EP2 CO2
819 273 3 -0.325600 33.572617 28.057421 9.461646 # O_EP3 CO2
820 274 1 0.651200 20.442617 10.312419 19.060646 # C_EP1 CO2
821 274 2 -0.325600 20.865616 10.469419 20.129644 # O_EP2 CO2
822 274 3 -0.325600 20.019617 10.155419 17.992645 # O_EP3 CO2
823 275 1 0.651200 30.995617 22.634420 35.887646 # C_EP1 CO2
824 275 2 -0.325600 30.898617 22.528419 37.038647 # O_EP2 CO2
825 275 3 -0.325600 31.092617 22.740419 34.736645 # O_EP3 CO2
826 276 1 0.651200 18.174616 23.168419 16.377645 # C_EP1 CO2
827 276 2 -0.325600 18.205616 23.133419 17.536646 # O_EP2 CO2
828 276 3 -0.325600 18.144617 23.203419 15.218647 # O_EP3 CO2
829 277 1 0.651200 12.409616 28.776419 12.494646 # C_EP1 CO2
830 277 2 -0.325600 11.853617 28.176420 13.317646 # O_EP2 CO2
831 277 3 -0.325600 12.965616 29.375420 11.671646 # O_EP3 CO2
832 278 1 0.651200 32.240616 22.148418 18.501646 # C_EP1 CO2
833 278 2 -0.325600 32.242619 22.147419 19.661646 # O_EP2 CO2
834 278 3 -0.325600 32.237617 22.149420 17.341646 # O_EP3 CO2
835 279 1 0.651200 4.689617 25.304420 27.295647 # C_EP1 CO2
836 279 2 -0.325600 4.089617 24.568420 27.961645 # O_EP2 CO2
837 279 3 -0.325600 5.289617 26.040421 26.629646 # O_EP3 CO2
838 280 1 0.651200 16.488617 37.932419 10.012646 # C_EP1 CO2
839 280 2 -0.325600 17.067616 38.393417 9.119646 # O_EP2 CO2
840 280 3 -0.325600 15.908617 37.472420 10.905646 # O_EP3 CO2
841 281 1 0.651200 21.443617 32.188419 12.585646 # C_EP1 CO2
842 281 2 -0.325600 22.466618 32.435421 12.098646 # O_EP2 CO2
843 281 3 -0.325600 20.419617 31.941418 13.073646 # O_EP3 CO2
844 282 1 0.651200 11.688616 22.832420 15.239647 # C_EP1 CO2
845 282 2 -0.325600 11.782617 23.457420 14.267646 # O_EP2 CO2
846 282 3 -0.325600 11.595616 22.206419 16.212646 # O_EP3 CO2
847 283 1 0.651200 19.771616 14.046420 31.815645 # C_EP1 CO2
848 283 2 -0.325600 19.449617 13.663420 32.862648 # O_EP2 CO2
849 283 3 -0.325600 20.093616 14.428419 30.769646 # O_EP3 CO2
850 284 1 0.651200 0.742617 14.816419 33.840645 # C_EP1 CO2
851 284 2 -0.325600 0.741616 14.816419 32.680645 # O_EP2 CO2
852 284 3 -0.325600 0.742617 14.816419 35.000645 # O_EP3 CO2
853 285 1 0.651200 32.370617 4.731420 4.937646 # C_EP1 CO2
854 285 2 -0.325600 32.458618 5.080419 6.040646 # O_EP2 CO2
855 285 3 -0.325600 32.283615 4.382419 3.834646 # O_EP3 CO2
856 286 1 0.651200 36.192619 21.601419 9.550647 # C_EP1 CO2
857 286 2 -0.325600 36.746616 22.612419 9.425646 # O_EP2 CO2
858 286 3 -0.325600 35.637619 20.590420 9.676646 # O_EP3 CO2
859 287 1 0.651200 17.402617 5.773419 16.259647 # C_EP1 CO2
860 287 2 -0.325600 18.527617 6.048419 16.323647 # O_EP2 CO2
861 287 3 -0.325600 16.277617 5.497419 16.196646 # O_EP3 CO2
862 288 1 0.651200 37.356617 23.202419 24.693645 # C_EP1 CO2
863 288 2 -0.325600 36.870617 22.424419 25.402645 # O_EP2 CO2
864 288 3 -0.325600 37.842617 23.980419 23.983646 # O_EP3 CO2
865 289 1 0.651200 35.020615 34.875420 27.637646 # C_EP1 CO2
866 289 2 -0.325600 36.163616 34.772419 27.465647 # O_EP2 CO2
867 289 3 -0.325600 33.878616 34.979420 27.809647 # O_EP3 CO2
868 290 1 0.651200 22.839615 11.538420 28.330647 # C_EP1 CO2
869 290 2 -0.325600 22.778616 11.633420 29.484646 # O_EP2 CO2
870 290 3 -0.325600 22.899616 11.443419 27.175646 # O_EP3 CO2
871 291 1 0.651200 12.708616 34.752419 34.780647 # C_EP1 CO2
872 291 2 -0.325600 13.805617 34.376419 34.797646 # O_EP2 CO2
873 291 3 -0.325600 11.611616 35.128418 34.764645 # O_EP3 CO2
874 292 1 0.651200 37.780617 2.904419 36.275646 # C_EP1 CO2
875 292 2 -0.325600 37.250618 2.726419 35.259644 # O_EP2 CO2
876 292 3 -0.325600 38.311619 3.083420 37.291645 # O_EP3 CO2
877 293 1 0.651200 23.661615 8.543419 9.493646 # C_EP1 CO2
878 293 2 -0.325600 23.002617 7.728419 9.989645 # O_EP2 CO2
879 293 3 -0.325600 24.321615 9.359419 8.997646 # O_EP3 CO2
880 294 1 0.651200 18.555616 33.105419 34.416649 # C_EP1 CO2
881 294 2 -0.325600 18.616617 32.289421 35.238644 # O_EP2 CO2
882 294 3 -0.325600 18.493616 33.921421 33.595646 # O_EP3 CO2
883 295 1 0.651200 37.725616 24.938419 26.268646 # C_EP1 CO2
884 295 2 -0.325600 37.511616 23.967419 26.865646 # O_EP2 CO2
885 295 3 -0.325600 37.940617 25.909420 25.670645 # O_EP3 CO2
886 296 1 0.651200 22.141617 2.131419 21.604645 # C_EP1 CO2
887 296 2 -0.325600 22.836617 2.280419 20.687647 # O_EP2 CO2
888 296 3 -0.325600 21.445618 1.982419 22.520647 # O_EP3 CO2
889 297 1 0.651200 6.402617 34.330421 27.670647 # C_EP1 CO2
890 297 2 -0.325600 5.954617 34.512421 26.616646 # O_EP2 CO2
891 297 3 -0.325600 6.851616 34.147419 28.724648 # O_EP3 CO2
892 298 1 0.651200 15.044617 25.835419 25.584644 # C_EP1 CO2
893 298 2 -0.325600 15.167617 26.090420 24.459646 # O_EP2 CO2
894 298 3 -0.325600 14.920616 25.581419 26.709648 # O_EP3 CO2
895 299 1 0.651200 31.148617 25.546419 18.915646 # C_EP1 CO2
896 299 2 -0.325600 31.198616 25.587421 17.757647 # O_EP2 CO2
897 299 3 -0.325600 31.098616 25.506420 20.073645 # O_EP3 CO2
898 300 1 0.651200 29.010616 9.772419 25.642645 # C_EP1 CO2
899 300 2 -0.325600 28.271616 10.499419 25.122644 # O_EP2 CO2
900 300 3 -0.325600 29.749619 9.045420 26.162645 # O_EP3 CO2
901 301 1 0.651200 8.642616 21.671419 37.328648 # C_EP1 CO2
902 301 2 -0.325600 9.291616 20.710421 37.308647 # O_EP2 CO2
903 301 3 -0.325600 7.993617 22.632420 37.348648 # O_EP3 CO2
904 302 1 0.651200 6.740617 32.327419 31.160645 # C_EP1 CO2
905 302 2 -0.325600 6.489616 32.226418 30.032646 # O_EP2 CO2
906 302 3 -0.325600 6.991616 32.428421 32.288647 # O_EP3 CO2
907 303 1 0.651200 32.969616 20.468418 28.494646 # C_EP1 CO2
908 303 2 -0.325600 31.830616 20.352419 28.305645 # O_EP2 CO2
909 303 3 -0.325600 34.107616 20.583420 28.683645 # O_EP3 CO2
910 304 1 0.651200 30.477617 3.103420 6.683646 # C_EP1 CO2
911 304 2 -0.325600 30.707617 1.985419 6.476646 # O_EP2 CO2
912 304 3 -0.325600 30.247616 4.220419 6.890646 # O_EP3 CO2
913 305 1 0.651200 4.848617 17.101419 25.766647 # C_EP1 CO2
914 305 2 -0.325600 4.724617 17.215420 24.618647 # O_EP2 CO2
915 305 3 -0.325600 4.972616 16.986420 26.914646 # O_EP3 CO2
916 306 1 0.651200 28.374617 13.458419 28.633648 # C_EP1 CO2
917 306 2 -0.325600 28.866617 12.413420 28.517647 # O_EP2 CO2
918 306 3 -0.325600 27.883615 14.502419 28.748646 # O_EP3 CO2
919 307 1 0.651200 6.709617 27.144421 2.148646 # C_EP1 CO2
920 307 2 -0.325600 6.741617 26.353418 1.301646 # O_EP2 CO2
921 307 3 -0.325600 6.676617 27.935419 2.996646 # O_EP3 CO2
922 308 1 0.651200 28.003616 8.748419 6.410646 # C_EP1 CO2
923 308 2 -0.325600 28.459616 9.175419 7.388646 # O_EP2 CO2
924 308 3 -0.325600 27.547617 8.321420 5.433646 # O_EP3 CO2
925 309 1 0.651200 3.105617 36.126419 19.050646 # C_EP1 CO2
926 309 2 -0.325600 3.539617 35.575417 19.974648 # O_EP2 CO2
927 309 3 -0.325600 2.671616 36.677422 18.126646 # O_EP3 CO2
928 310 1 0.651200 31.138615 7.024419 37.201645 # C_EP1 CO2
929 310 2 -0.325600 30.145617 7.237420 36.641647 # O_EP2 CO2
930 310 3 -0.325600 32.131618 6.811419 37.762646 # O_EP3 CO2
931 311 1 0.651200 32.799614 7.313419 3.789646 # C_EP1 CO2
932 311 2 -0.325600 33.519615 6.866419 4.582646 # O_EP2 CO2
933 311 3 -0.325600 32.079617 7.760419 2.997646 # O_EP3 CO2
934 312 1 0.651200 20.756617 33.696419 5.443646 # C_EP1 CO2
935 312 2 -0.325600 20.533617 32.692421 4.907646 # O_EP2 CO2
936 312 3 -0.325600 20.980616 34.700420 5.979646 # O_EP3 CO2
937 313 1 0.651200 11.993617 36.162418 23.146646 # C_EP1 CO2
938 313 2 -0.325600 11.783617 35.665421 22.118647 # O_EP2 CO2
939 313 3 -0.325600 12.202617 36.658421 24.173645 # O_EP3 CO2
940 314 1 0.651200 19.032616 2.973419 36.504646 # C_EP1 CO2
941 314 2 -0.325600 18.756617 3.178420 35.396645 # O_EP2 CO2
942 314 3 -0.325600 19.307617 2.767420 37.612644 # O_EP3 CO2
943 315 1 0.651200 8.886616 12.951420 2.867646 # C_EP1 CO2
944 315 2 -0.325600 8.861616 13.060419 4.021646 # O_EP2 CO2
945 315 3 -0.325600 8.912617 12.841419 1.712646 # O_EP3 CO2
946 316 1 0.651200 9.603616 35.656418 5.891646 # C_EP1 CO2
947 316 2 -0.325600 8.810616 35.570419 6.733646 # O_EP2 CO2
948 316 3 -0.325600 10.397616 35.743420 5.050646 # O_EP3 CO2
949 317 1 0.651200 23.406618 9.717419 32.192646 # C_EP1 CO2
950 317 2 -0.325600 22.779617 10.063419 31.279644 # O_EP2 CO2
951 317 3 -0.325600 24.034616 9.372419 33.104645 # O_EP3 CO2
952 318 1 0.651200 21.604616 8.036419 16.550646 # C_EP1 CO2
953 318 2 -0.325600 22.296618 8.446419 17.386646 # O_EP2 CO2
954 318 3 -0.325600 20.911617 7.626420 15.715646 # O_EP3 CO2
955 319 1 0.651200 18.616617 22.987421 12.678646 # C_EP1 CO2
956 319 2 -0.325600 19.177616 22.048418 12.292646 # O_EP2 CO2
957 319 3 -0.325600 18.055616 23.926420 13.064646 # O_EP3 CO2
958 320 1 0.651200 18.058617 24.414421 35.643646 # C_EP1 CO2
959 320 2 -0.325600 17.723616 24.026421 36.683647 # O_EP2 CO2
960 320 3 -0.325600 18.393616 24.803419 34.602646 # O_EP3 CO2
961 321 1 0.651200 26.546616 36.745419 23.861647 # C_EP1 CO2
962 321 2 -0.325600 25.913618 37.694420 23.648645 # O_EP2 CO2
963 321 3 -0.325600 27.178616 35.796421 24.074646 # O_EP3 CO2
964 322 1 0.651200 29.050617 7.094419 3.300646 # C_EP1 CO2
965 322 2 -0.325600 29.090616 7.190419 2.145646 # O_EP2 CO2
966 322 3 -0.325600 29.009617 6.997419 4.456646 # O_EP3 CO2
967 323 1 0.651200 7.249617 28.378420 18.080647 # C_EP1 CO2
968 323 2 -0.325600 6.643617 28.538420 19.057646 # O_EP2 CO2
969 323 3 -0.325600 7.854617 28.219418 17.103645 # O_EP3 CO2
970 324 1 0.651200 8.945617 5.473419 34.704647 # C_EP1 CO2
971 324 2 -0.325600 8.076616 4.721419 34.538647 # O_EP2 CO2
972 324 3 -0.325600 9.813616 6.225420 34.869648 # O_EP3 CO2
973 325 1 0.651200 27.502615 22.363419 8.367645 # C_EP1 CO2
974 325 2 -0.325600 27.707617 22.336418 9.509645 # O_EP2 CO2
975 325 3 -0.325600 27.297615 22.391418 7.226646 # O_EP3 CO2
976 326 1 0.651200 32.451614 15.947419 11.941647 # C_EP1 CO2
977 326 2 -0.325600 32.937618 15.148419 11.255646 # O_EP2 CO2
978 326 3 -0.325600 31.966618 16.747419 12.627645 # O_EP3 CO2
979 327 1 0.651200 35.195618 15.023420 32.665646 # C_EP1 CO2
980 327 2 -0.325600 35.415615 15.096418 33.802647 # O_EP2 CO2
981 327 3 -0.325600 34.975616 14.950419 31.528646 # O_EP3 CO2
982 328 1 0.651200 18.115618 22.435419 38.152649 # C_EP1 CO2
983 328 2 -0.325600 19.163616 22.916420 38.274647 # O_EP2 CO2
984 328 3 -0.325600 17.066616 21.955418 38.029648 # O_EP3 CO2
985 329 1 0.651200 15.997616 34.189419 34.821648 # C_EP1 CO2
986 329 2 -0.325600 16.116617 33.968422 35.953644 # O_EP2 CO2
987 329 3 -0.325600 15.877617 34.410419 33.688644 # O_EP3 CO2
988 330 1 0.651200 16.780617 9.148419 16.282646 # C_EP1 CO2
989 330 2 -0.325600 16.622616 9.054420 17.428646 # O_EP2 CO2
990 330 3 -0.325600 16.939617 9.241420 15.137646 # O_EP3 CO2
991 331 1 0.651200 2.536617 13.757420 23.999645 # C_EP1 CO2
992 331 2 -0.325600 3.608617 13.371420 24.217646 # O_EP2 CO2
993 331 3 -0.325600 1.464617 14.143419 23.781645 # O_EP3 CO2
994 332 1 0.651200 29.325617 28.431419 34.528648 # C_EP1 CO2
995 332 2 -0.325600 28.370617 28.455420 33.870647 # O_EP2 CO2
996 332 3 -0.325600 30.279617 28.407419 35.187645 # O_EP3 CO2
997 333 1 0.651200 28.071615 25.686419 26.234646 # C_EP1 CO2
998 333 2 -0.325600 28.013615 25.585421 27.388647 # O_EP2 CO2
999 333 3 -0.325600 28.129616 25.787420 25.080645 # O_EP3 CO2
1000 334 1 0.651200 32.872616 24.248419 16.299646 # C_EP1 CO2
1001 334 2 -0.325600 32.241615 23.824421 15.423646 # O_EP2 CO2
1002 334 3 -0.325600 33.503616 24.672421 17.175646 # O_EP3 CO2
1003 335 1 0.651200 34.353615 27.473419 20.275646 # C_EP1 CO2
1004 335 2 -0.325600 33.608616 27.929420 19.512646 # O_EP2 CO2
1005 335 3 -0.325600 35.098618 27.018417 21.039646 # O_EP3 CO2
1006 336 1 0.651200 9.821616 9.690419 5.908646 # C_EP1 CO2
1007 336 2 -0.325600 9.006617 10.245420 6.519646 # O_EP2 CO2
1008 336 3 -0.325600 10.635616 9.134419 5.297646 # O_EP3 CO2
1009 337 1 0.651200 3.649616 29.968418 3.220646 # C_EP1 CO2
1010 337 2 -0.325600 4.082617 28.995419 3.680646 # O_EP2 CO2
1011 337 3 -0.325600 3.215617 30.941420 2.760646 # O_EP3 CO2
1012 338 1 0.651200 12.598618 25.127420 3.660646 # C_EP1 CO2
1013 338 2 -0.325600 13.108617 24.993420 4.694646 # O_EP2 CO2
1014 338 3 -0.325600 12.088617 25.260420 2.627646 # O_EP3 CO2
1015 339 1 0.651200 34.902615 35.842419 32.009647 # C_EP1 CO2
1016 339 2 -0.325600 35.206615 35.977417 33.120647 # O_EP2 CO2
1017 339 3 -0.325600 34.598618 35.707420 30.898645 # O_EP3 CO2
1018 340 1 0.651200 24.182617 12.040420 31.321648 # C_EP1 CO2
1019 340 2 -0.325600 24.766617 11.355419 30.590647 # O_EP2 CO2
1020 340 3 -0.325600 23.598616 12.726419 32.051647 # O_EP3 CO2
1021 341 1 0.651200 24.050617 22.984419 35.022644 # C_EP1 CO2
1022 341 2 -0.325600 23.473616 22.343418 34.247646 # O_EP2 CO2
1023 341 3 -0.325600 24.627617 23.625420 35.798645 # O_EP3 CO2
1024 342 1 0.651200 33.284615 34.738419 11.512646 # C_EP1 CO2
1025 342 2 -0.325600 32.401615 34.617420 10.769646 # O_EP2 CO2
1026 342 3 -0.325600 34.167618 34.860420 12.255646 # O_EP3 CO2
1027 343 1 0.651200 21.010616 32.117420 34.807648 # C_EP1 CO2
1028 343 2 -0.325600 20.776617 31.806419 35.900646 # O_EP2 CO2
1029 343 3 -0.325600 21.244617 32.427422 33.714645 # O_EP3 CO2
1030 344 1 0.651200 14.666616 16.116419 34.920647 # C_EP1 CO2
1031 344 2 -0.325600 15.085616 15.671419 35.906647 # O_EP2 CO2
1032 344 3 -0.325600 14.246616 16.562420 33.934647 # O_EP3 CO2
1033 345 1 0.651200 11.811617 6.395419 14.857646 # C_EP1 CO2
1034 345 2 -0.325600 11.761617 5.628419 15.726646 # O_EP2 CO2
1035 345 3 -0.325600 11.861616 7.161419 13.987646 # O_EP3 CO2
1036 346 1 0.651200 1.253617 17.839420 1.364646 # C_EP1 CO2
1037 346 2 -0.325600 0.732616 18.608419 2.059646 # O_EP2 CO2
1038 346 3 -0.325600 1.775617 17.070419 0.670646 # O_EP3 CO2
1039 347 1 0.651200 13.275616 14.199419 32.246647 # C_EP1 CO2
1040 347 2 -0.325600 13.529616 14.277419 33.376648 # O_EP2 CO2
1041 347 3 -0.325600 13.021617 14.121419 31.117647 # O_EP3 CO2
1042 348 1 0.651200 26.511616 3.836420 12.006646 # C_EP1 CO2
1043 348 2 -0.325600 25.552616 3.989419 12.641645 # O_EP2 CO2
1044 348 3 -0.325600 27.469616 3.682419 11.371646 # O_EP3 CO2
1045 349 1 0.651200 23.315617 17.944420 22.025646 # C_EP1 CO2
1046 349 2 -0.325600 23.489616 18.744419 22.846645 # O_EP2 CO2
1047 349 3 -0.325600 23.141615 17.144419 21.203648 # O_EP3 CO2
1048 350 1 0.651200 32.733616 20.307419 31.303646 # C_EP1 CO2
1049 350 2 -0.325600 33.407616 19.858419 32.133644 # O_EP2 CO2
1050 350 3 -0.325600 32.058617 20.756418 30.473648 # O_EP3 CO2
1051 351 1 0.651200 13.041616 1.933419 6.733646 # C_EP1 CO2
1052 351 2 -0.325600 13.052616 1.661419 5.605646 # O_EP2 CO2
1053 351 3 -0.325600 13.030616 2.204419 7.860646 # O_EP3 CO2
1054 352 1 0.651200 27.147617 15.682420 31.368647 # C_EP1 CO2
1055 352 2 -0.325600 27.074615 16.050419 30.270645 # O_EP2 CO2
1056 352 3 -0.325600 27.221615 15.315419 32.465645 # O_EP3 CO2
1057 353 1 0.651200 8.616617 31.632420 4.067646 # C_EP1 CO2
1058 353 2 -0.325600 7.685616 31.192419 4.602646 # O_EP2 CO2
1059 353 3 -0.325600 9.546616 32.071419 3.533646 # O_EP3 CO2
1060 354 1 0.651200 12.833616 6.229420 21.619646 # C_EP1 CO2
1061 354 2 -0.325600 11.739616 6.466420 21.923647 # O_EP2 CO2
1062 354 3 -0.325600 13.926617 5.992420 21.314648 # O_EP3 CO2
1063 355 1 0.651200 16.531616 15.910419 32.693645 # C_EP1 CO2
1064 355 2 -0.325600 17.543617 16.104420 33.225647 # O_EP2 CO2
1065 355 3 -0.325600 15.519617 15.715419 32.161644 # O_EP3 CO2
1066 356 1 0.651200 5.724617 21.756420 22.080647 # C_EP1 CO2
1067 356 2 -0.325600 5.134616 21.286419 22.962646 # O_EP2 CO2
1068 356 3 -0.325600 6.313617 22.225420 21.199646 # O_EP3 CO2
1069 357 1 0.651200 7.067616 10.583420 24.557646 # C_EP1 CO2
1070 357 2 -0.325600 8.135616 10.344419 24.941647 # O_EP2 CO2
1071 357 3 -0.325600 5.998616 10.823420 24.174644 # O_EP3 CO2
1072 358 1 0.651200 34.595615 25.408421 27.527647 # C_EP1 CO2
1073 358 2 -0.325600 34.293617 25.403419 26.407646 # O_EP2 CO2
1074 358 3 -0.325600 34.897617 25.414419 28.647648 # O_EP3 CO2
1075 359 1 0.651200 24.654617 34.493420 13.331646 # C_EP1 CO2
1076 359 2 -0.325600 25.692616 34.850418 13.707646 # O_EP2 CO2
1077 359 3 -0.325600 23.617615 34.136421 12.954646 # O_EP3 CO2
1078 360 1 0.651200 8.272616 8.621420 31.119648 # C_EP1 CO2
1079 360 2 -0.325600 7.880617 7.536420 30.992645 # O_EP2 CO2
1080 360 3 -0.325600 8.665617 9.705420 31.246645 # O_EP3 CO2
1081 361 1 0.651200 2.802616 31.684420 5.996646 # C_EP1 CO2
1082 361 2 -0.325600 3.003617 31.837421 4.864646 # O_EP2 CO2
1083 361 3 -0.325600 2.601616 31.530418 7.128646 # O_EP3 CO2
1084 362 1 0.651200 17.956617 16.399420 28.834646 # C_EP1 CO2
1085 362 2 -0.325600 18.623617 17.324419 28.623646 # O_EP2 CO2
1086 362 3 -0.325600 17.288616 15.474420 29.046646 # O_EP3 CO2
1087 363 1 0.651200 4.845616 15.546419 5.185646 # C_EP1 CO2
1088 363 2 -0.325600 4.772616 15.482420 6.341646 # O_EP2 CO2
1089 363 3 -0.325600 4.919617 15.610419 4.029646 # O_EP3 CO2
1090 364 1 0.651200 31.166615 2.724420 17.837646 # C_EP1 CO2
1091 364 2 -0.325600 31.605616 3.349420 18.710646 # O_EP2 CO2
1092 364 3 -0.325600 30.727615 2.099419 16.964647 # O_EP3 CO2
1093 365 1 0.651200 36.854618 9.156420 32.013645 # C_EP1 CO2
1094 365 2 -0.325600 37.187618 9.500420 30.956646 # O_EP2 CO2
1095 365 3 -0.325600 36.521614 8.812419 33.069645 # O_EP3 CO2
1096 366 1 0.651200 11.622616 18.580420 8.532646 # C_EP1 CO2
1097 366 2 -0.325600 12.122617 17.979420 7.675646 # O_EP2 CO2
1098 366 3 -0.325600 11.122617 19.182419 9.389647 # O_EP3 CO2
1099 367 1 0.651200 31.791615 24.568420 29.383644 # C_EP1 CO2
1100 367 2 -0.325600 30.638617 24.541418 29.511644 # O_EP2 CO2
1101 367 3 -0.325600 32.943615 24.595421 29.255646 # O_EP3 CO2
1102 368 1 0.651200 26.438616 11.981420 37.109646 # C_EP1 CO2
1103 368 2 -0.325600 27.586617 12.132420 37.046646 # O_EP2 CO2
1104 368 3 -0.325600 25.289616 11.830420 37.173645 # O_EP3 CO2
1105 369 1 0.651200 15.759617 6.700419 28.261644 # C_EP1 CO2
1106 369 2 -0.325600 15.192616 7.674419 27.986645 # O_EP2 CO2
1107 369 3 -0.325600 16.326616 5.727419 28.535645 # O_EP3 CO2
1108 370 1 0.651200 30.558617 5.658420 16.882647 # C_EP1 CO2
1109 370 2 -0.325600 30.560617 5.925419 15.753646 # O_EP2 CO2
1110 370 3 -0.325600 30.556618 5.391419 18.011646 # O_EP3 CO2
1111 371 1 0.651200 11.060617 2.578419 17.420647 # C_EP1 CO2
1112 371 2 -0.325600 11.063616 2.060420 16.382647 # O_EP2 CO2
1113 371 3 -0.325600 11.057616 3.095419 18.459646 # O_EP3 CO2
1114 372 1 0.651200 25.099617 21.753418 5.189646 # C_EP1 CO2
1115 372 2 -0.325600 25.106617 22.592421 4.389646 # O_EP2 CO2
1116 372 3 -0.325600 25.091618 20.914419 5.990646 # O_EP3 CO2
1117 373 1 0.651200 25.202618 17.385420 28.249645 # C_EP1 CO2
1118 373 2 -0.325600 25.308617 17.183420 27.111647 # O_EP2 CO2
1119 373 3 -0.325600 25.095615 17.587420 29.386646 # O_EP3 CO2
1120 374 1 0.651200 35.821617 22.096420 27.796646 # C_EP1 CO2
1121 374 2 -0.325600 36.067616 22.993420 28.490646 # O_EP2 CO2
1122 374 3 -0.325600 35.575615 21.200418 27.102646 # O_EP3 CO2
1123 375 1 0.651200 6.648617 7.828419 5.898646 # C_EP1 CO2
1124 375 2 -0.325600 6.723617 6.826419 5.318646 # O_EP2 CO2
1125 375 3 -0.325600 6.573616 8.830420 6.477646 # O_EP3 CO2
1126 376 1 0.651200 33.021618 14.031420 5.148646 # C_EP1 CO2
1127 376 2 -0.325600 32.149616 14.598419 5.662646 # O_EP2 CO2
1128 376 3 -0.325600 33.893616 13.465420 4.635646 # O_EP3 CO2
1129 377 1 0.651200 5.417616 3.328419 33.191647 # C_EP1 CO2
1130 377 2 -0.325600 4.748616 2.567420 33.756645 # O_EP2 CO2
1131 377 3 -0.325600 6.085616 4.090419 32.627647 # O_EP3 CO2
1132 378 1 0.651200 26.293617 9.583420 10.313645 # C_EP1 CO2
1133 378 2 -0.325600 26.600616 9.419419 9.207646 # O_EP2 CO2
1134 378 3 -0.325600 25.985619 9.748420 11.419645 # O_EP3 CO2
1135 379 1 0.651200 28.937616 1.500419 27.881645 # C_EP1 CO2
1136 379 2 -0.325600 28.883617 1.658419 26.733646 # O_EP2 CO2
1137 379 3 -0.325600 28.991615 1.343419 29.029646 # O_EP3 CO2
1138 380 1 0.651200 3.643616 33.855419 2.619646 # C_EP1 CO2
1139 380 2 -0.325600 2.487617 33.761421 2.623646 # O_EP2 CO2
1140 380 3 -0.325600 4.799616 33.949421 2.615646 # O_EP3 CO2
1141 381 1 0.651200 22.590616 26.650419 34.220646 # C_EP1 CO2
1142 381 2 -0.325600 22.945616 26.351418 35.283646 # O_EP2 CO2
1143 381 3 -0.325600 22.236616 26.949421 33.156647 # O_EP3 CO2
1144 382 1 0.651200 3.720616 26.577419 32.388645 # C_EP1 CO2
1145 382 2 -0.325600 4.748616 26.905420 31.961647 # O_EP2 CO2
1146 382 3 -0.325600 2.693616 26.249418 32.815647 # O_EP3 CO2
1147 383 1 0.651200 5.388617 8.917419 3.212646 # C_EP1 CO2
1148 383 2 -0.325600 5.517616 9.208420 2.097646 # O_EP2 CO2
1149 383 3 -0.325600 5.260616 8.627419 4.328646 # O_EP3 CO2
1150 384 1 0.651200 28.202618 20.263420 38.168644 # C_EP1 CO2
1151 384 2 -0.325600 28.583618 19.167419 38.187645 # O_EP2 CO2
1152 384 3 -0.325600 27.821617 21.358418 38.150646 # O_EP3 CO2
1153 385 1 0.651200 21.038616 9.075419 12.186646 # C_EP1 CO2
1154 385 2 -0.325600 20.129616 9.351419 11.520645 # O_EP2 CO2
1155 385 3 -0.325600 21.947617 8.798419 12.852646 # O_EP3 CO2
1156 386 1 0.651200 22.466618 1.342419 11.395646 # C_EP1 CO2
1157 386 2 -0.325600 22.464617 1.440419 12.550646 # O_EP2 CO2
1158 386 3 -0.325600 22.468616 1.243419 10.239647 # O_EP3 CO2
1159 387 1 0.651200 6.717616 14.380419 6.325646 # C_EP1 CO2
1160 387 2 -0.325600 7.213616 15.207419 6.971646 # O_EP2 CO2
1161 387 3 -0.325600 6.221616 13.554420 5.680646 # O_EP3 CO2
1162 388 1 0.651200 30.167616 11.985420 26.182648 # C_EP1 CO2
1163 388 2 -0.325600 29.065617 12.336420 26.278646 # O_EP2 CO2
1164 388 3 -0.325600 31.268616 11.634418 26.087646 # O_EP3 CO2
1165 389 1 0.651200 4.866617 18.896420 22.616646 # C_EP1 CO2
1166 389 2 -0.325600 4.459617 18.604420 21.570646 # O_EP2 CO2
1167 389 3 -0.325600 5.273616 19.188419 23.663647 # O_EP3 CO2
1168 390 1 0.651200 23.536615 16.693419 17.877645 # C_EP1 CO2
1169 390 2 -0.325600 23.929617 16.417419 18.933645 # O_EP2 CO2
1170 390 3 -0.325600 23.143616 16.970421 16.821646 # O_EP3 CO2
1171 391 1 0.651200 27.188616 2.235420 35.157646 # C_EP1 CO2
1172 391 2 -0.325600 27.953617 2.997420 34.734646 # O_EP2 CO2
1173 391 3 -0.325600 26.423616 1.472420 35.580647 # O_EP3 CO2
1174 392 1 0.651200 17.554617 3.299420 20.250647 # C_EP1 CO2
1175 392 2 -0.325600 16.738617 2.976419 21.009645 # O_EP2 CO2
1176 392 3 -0.325600 18.369616 3.623419 19.491646 # O_EP3 CO2
1177 393 1 0.651200 37.355618 2.385419 5.394646 # C_EP1 CO2
1178 393 2 -0.325600 36.633614 2.047419 4.551646 # O_EP2 CO2
1179 393 3 -0.325600 38.076614 2.724420 6.236646 # O_EP3 CO2
1180 394 1 0.651200 22.683617 5.962420 17.027647 # C_EP1 CO2
1181 394 2 -0.325600 22.712616 6.007419 15.868646 # O_EP2 CO2
1182 394 3 -0.325600 22.655617 5.917419 18.186646 # O_EP3 CO2
1183 395 1 0.651200 29.139616 23.341419 19.623646 # C_EP1 CO2
1184 395 2 -0.325600 29.563616 23.884420 18.690645 # O_EP2 CO2
1185 395 3 -0.325600 28.716618 22.797421 20.556644 # O_EP3 CO2
1186 396 1 0.651200 16.696617 19.426420 7.168646 # C_EP1 CO2
1187 396 2 -0.325600 15.980617 19.752419 8.021646 # O_EP2 CO2
1188 396 3 -0.325600 17.411617 19.099419 6.315646 # O_EP3 CO2
1189 397 1 0.651200 8.009617 33.076420 11.550646 # C_EP1 CO2
1190 397 2 -0.325600 8.663617 33.048420 10.592647 # O_EP2 CO2
1191 397 3 -0.325600 7.355617 33.105419 12.508646 # O_EP3 CO2
1192 398 1 0.651200 20.562614 25.727421 34.436646 # C_EP1 CO2
1193 398 2 -0.325600 20.178616 26.810419 34.281647 # O_EP2 CO2
1194 398 3 -0.325600 20.946617 24.643419 34.591644 # O_EP3 CO2
1195 399 1 0.651200 28.211617 10.024419 37.139648 # C_EP1 CO2
1196 399 2 -0.325600 28.443615 9.979420 36.004646 # O_EP2 CO2
1197 399 3 -0.325600 27.979618 10.069419 38.275646 # O_EP3 CO2
1198 400 1 0.651200 2.156616 17.360418 26.984646 # C_EP1 CO2
1199 400 2 -0.325600 2.506616 16.473419 26.323645 # O_EP2 CO2
1200 400 3 -0.325600 1.806617 18.247419 27.645645 # O_EP3 CO2
1201 401 1 0.651200 14.527617 9.547420 6.423646 # C_EP1 CO2
1202 401 2 -0.325600 14.888617 9.712420 7.513646 # O_EP2 CO2
1203 401 3 -0.325600 14.166616 9.382420 5.333646 # O_EP3 CO2
1204 402 1 0.651200 18.507616 7.063419 9.757647 # C_EP1 CO2
1205 402 2 -0.325600 17.884617 8.035419 9.648646 # O_EP2 CO2
1206 402 3 -0.325600 19.129616 6.090419 9.866647 # O_EP3 CO2
1207 403 1 0.651200 24.691618 34.493420 35.791645 # C_EP1 CO2
1208 403 2 -0.325600 25.829617 34.699417 35.699646 # O_EP2 CO2
1209 403 3 -0.325600 23.553617 34.288418 35.882648 # O_EP3 CO2
1210 404 1 0.651200 29.199617 5.314419 1.001646 # C_EP1 CO2
1211 404 2 -0.325600 30.290615 5.538420 0.678646 # O_EP2 CO2
1212 404 3 -0.325600 28.108616 5.090420 1.324646 # O_EP3 CO2
1213 405 1 0.651200 20.956615 30.458420 29.557646 # C_EP1 CO2
1214 405 2 -0.325600 21.035616 31.595419 29.343645 # O_EP2 CO2
1215 405 3 -0.325600 20.878616 29.320419 29.770645 # O_EP3 CO2
1216 406 1 0.651200 6.025617 1.364419 29.926645 # C_EP1 CO2
1217 406 2 -0.325600 5.015616 1.245420 29.369644 # O_EP2 CO2
1218 406 3 -0.325600 7.036616 1.483419 30.484646 # O_EP3 CO2
1219 407 1 0.651200 32.794617 14.641419 31.447647 # C_EP1 CO2
1220 407 2 -0.325600 32.589615 14.107419 32.456646 # O_EP2 CO2
1221 407 3 -0.325600 32.999615 15.176419 30.438644 # O_EP3 CO2
1222 408 1 0.651200 28.975616 7.062420 31.492645 # C_EP1 CO2
1223 408 2 -0.325600 29.133615 6.900420 30.354645 # O_EP2 CO2
1224 408 3 -0.325600 28.817616 7.224420 32.629646 # O_EP3 CO2
1225 409 1 0.651200 1.670617 9.552420 35.101646 # C_EP1 CO2
1226 409 2 -0.325600 2.606616 8.969419 34.739647 # O_EP2 CO2
1227 409 3 -0.325600 0.734617 10.134419 35.463646 # O_EP3 CO2
1228 410 1 0.651200 3.414617 21.627419 9.021646 # C_EP1 CO2
1229 410 2 -0.325600 3.851616 20.558418 8.901646 # O_EP2 CO2
1230 410 3 -0.325600 2.978616 22.695419 9.141646 # O_EP3 CO2
1231 411 1 0.651200 34.906616 33.535419 5.434646 # C_EP1 CO2
1232 411 2 -0.325600 34.927616 33.757420 6.573646 # O_EP2 CO2
1233 411 3 -0.325600 34.886620 33.313419 4.296646 # O_EP3 CO2
1234 412 1 0.651200 20.135616 17.869419 2.867646 # C_EP1 CO2
1235 412 2 -0.325600 19.543617 18.808420 2.531646 # O_EP2 CO2
1236 412 3 -0.325600 20.728617 16.931419 3.203646 # O_EP3 CO2
1237 413 1 0.651200 18.845617 11.127419 28.933647 # C_EP1 CO2
1238 413 2 -0.325600 18.082617 11.660419 28.240644 # O_EP2 CO2
1239 413 3 -0.325600 19.607616 10.595419 29.627645 # O_EP3 CO2
1240 414 1 0.651200 7.377617 25.388420 4.030646 # C_EP1 CO2
1241 414 2 -0.325600 7.759616 26.323418 4.600646 # O_EP2 CO2
1242 414 3 -0.325600 6.995616 24.453419 3.459646 # O_EP3 CO2
1243 415 1 0.651200 27.854616 5.380420 18.411646 # C_EP1 CO2
1244 415 2 -0.325600 27.262615 4.978419 19.324646 # O_EP2 CO2
1245 415 3 -0.325600 28.446617 5.782419 17.498646 # O_EP3 CO2
1246 416 1 0.651200 26.537617 26.978418 16.488646 # C_EP1 CO2
1247 416 2 -0.325600 25.596617 26.909420 17.163647 # O_EP2 CO2
1248 416 3 -0.325600 27.478617 27.047421 15.813646 # O_EP3 CO2
1249 417 1 0.651200 5.034616 38.203419 10.432646 # C_EP1 CO2
1250 417 2 -0.325600 4.639616 38.343422 11.514646 # O_EP2 CO2
1251 417 3 -0.325600 5.428617 38.064419 9.350646 # O_EP3 CO2
1252 418 1 0.651200 37.643616 27.764420 32.572647 # C_EP1 CO2
1253 418 2 -0.325600 38.329617 26.967421 33.061646 # O_EP2 CO2
1254 418 3 -0.325600 36.958614 28.562420 32.084648 # O_EP3 CO2
1255 419 1 0.651200 29.802616 20.894421 32.409645 # C_EP1 CO2
1256 419 2 -0.325600 30.658617 20.114420 32.471645 # O_EP2 CO2
1257 419 3 -0.325600 28.945618 21.674419 32.348648 # O_EP3 CO2
1258 420 1 0.651200 5.680616 28.262421 37.448647 # C_EP1 CO2
1259 420 2 -0.325600 4.866617 28.284418 38.275646 # O_EP2 CO2
1260 420 3 -0.325600 6.494617 28.239420 36.622646 # O_EP3 CO2
1261 421 1 0.651200 24.095615 21.240421 16.104645 # C_EP1 CO2
1262 421 2 -0.325600 23.731615 20.457420 15.330647 # O_EP2 CO2
1263 421 3 -0.325600 24.459618 22.024420 16.879646 # O_EP3 CO2
1264 422 1 0.651200 33.299614 18.051418 26.872646 # C_EP1 CO2
1265 422 2 -0.325600 33.853615 18.625420 27.714645 # O_EP2 CO2
1266 422 3 -0.325600 32.745617 17.477419 26.030645 # O_EP3 CO2
1267 423 1 0.651200 26.051617 12.195419 32.795647 # C_EP1 CO2
1268 423 2 -0.325600 26.618616 13.204420 32.715645 # O_EP2 CO2
1269 423 3 -0.325600 25.484617 11.186419 32.875645 # O_EP3 CO2
1270 424 1 0.651200 8.877617 38.137421 2.282646 # C_EP1 CO2
1271 424 2 -0.325600 7.919617 37.905418 2.893646 # O_EP2 CO2
1272 424 3 -0.325600 9.835616 38.369419 1.671646 # O_EP3 CO2
1273 425 1 0.651200 8.726617 30.342419 11.866646 # C_EP1 CO2
1274 425 2 -0.325600 8.100616 30.118420 12.816647 # O_EP2 CO2
1275 425 3 -0.325600 9.353617 30.566422 10.916645 # O_EP3 CO2
1276 426 1 0.651200 4.504617 24.079420 37.465645 # C_EP1 CO2
1277 426 2 -0.325600 4.920617 25.112419 37.790646 # O_EP2 CO2
1278 426 3 -0.325600 4.089617 23.046419 37.140648 # O_EP3 CO2
1279 427 1 0.651200 15.653616 32.904419 29.709646 # C_EP1 CO2
1280 427 2 -0.325600 15.448617 31.847420 30.140646 # O_EP2 CO2
1281 427 3 -0.325600 15.858617 33.962418 29.279648 # O_EP3 CO2
1282 428 1 0.651200 11.603617 33.150421 36.186646 # C_EP1 CO2
1283 428 2 -0.325600 10.485617 33.083420 35.886646 # O_EP2 CO2
1284 428 3 -0.325600 12.722616 33.216419 36.486649 # O_EP3 CO2
1285 429 1 0.651200 31.121616 20.223419 23.157646 # C_EP1 CO2
1286 429 2 -0.325600 31.841618 20.322420 22.253647 # O_EP2 CO2
1287 429 3 -0.325600 30.402618 20.125420 24.062645 # O_EP3 CO2
1288 430 1 0.651200 14.151616 20.562420 20.249645 # C_EP1 CO2
1289 430 2 -0.325600 13.477616 20.994419 21.089647 # O_EP2 CO2
1290 430 3 -0.325600 14.824617 20.130421 19.409645 # O_EP3 CO2
1291 431 1 0.651200 33.555618 12.432419 12.741646 # C_EP1 CO2
1292 431 2 -0.325600 33.274616 11.480419 12.141646 # O_EP2 CO2
1293 431 3 -0.325600 33.836617 13.385420 13.341646 # O_EP3 CO2
1294 432 1 0.651200 34.379616 11.517420 9.353646 # C_EP1 CO2
1295 432 2 -0.325600 35.191616 12.022419 8.696646 # O_EP2 CO2
1296 432 3 -0.325600 33.567616 11.012420 10.010647 # O_EP3 CO2
1297 433 1 0.651200 19.864616 3.963419 23.082645 # C_EP1 CO2
1298 433 2 -0.325600 19.723616 3.813419 21.940647 # O_EP2 CO2
1299 433 3 -0.325600 20.004616 4.114419 24.223648 # O_EP3 CO2
1300 434 1 0.651200 35.020615 19.509418 33.843647 # C_EP1 CO2
1301 434 2 -0.325600 34.099617 19.022419 34.354645 # O_EP2 CO2
1302 434 3 -0.325600 35.941616 19.996418 33.333645 # O_EP3 CO2
1303 435 1 0.651200 32.564617 36.805420 9.190646 # C_EP1 CO2
1304 435 2 -0.325600 32.140617 36.403419 8.188646 # O_EP2 CO2
1305 435 3 -0.325600 32.989616 37.208420 10.191646 # O_EP3 CO2
1306 436 1 0.651200 22.411615 11.016418 16.656645 # C_EP1 CO2
1307 436 2 -0.325600 22.985615 10.195419 16.071646 # O_EP2 CO2
1308 436 3 -0.325600 21.837616 11.837420 17.240646 # O_EP3 CO2
1309 437 1 0.651200 3.856616 13.023419 37.022644 # C_EP1 CO2
1310 437 2 -0.325600 3.786617 12.515420 38.062645 # O_EP2 CO2
1311 437 3 -0.325600 3.926617 13.532419 35.982647 # O_EP3 CO2
1312 438 1 0.651200 6.220617 37.100418 13.306646 # C_EP1 CO2
1313 438 2 -0.325600 5.306616 36.463421 12.983646 # O_EP2 CO2
1314 438 3 -0.325600 7.134616 37.738419 13.629646 # O_EP3 CO2
1315 439 1 0.651200 12.056617 1.266419 19.188646 # C_EP1 CO2
1316 439 2 -0.325600 13.123616 1.291419 18.734646 # O_EP2 CO2
1317 439 3 -0.325600 10.989616 1.242419 19.642647 # O_EP3 CO2
1318 440 1 0.651200 16.054615 37.953419 35.229649 # C_EP1 CO2
1319 440 2 -0.325600 15.725616 37.626419 36.292645 # O_EP2 CO2
1320 440 3 -0.325600 16.382616 38.281418 34.165646 # O_EP3 CO2
1321 441 1 0.651200 9.730617 36.197418 8.877645 # C_EP1 CO2
1322 441 2 -0.325600 9.838617 37.224419 8.348646 # O_EP2 CO2
1323 441 3 -0.325600 9.621616 35.170418 9.405645 # O_EP3 CO2
1324 442 1 0.651200 6.995616 30.938419 15.547647 # C_EP1 CO2
1325 442 2 -0.325600 7.702617 31.611420 16.175646 # O_EP2 CO2
1326 442 3 -0.325600 6.289616 30.265419 14.920646 # O_EP3 CO2
1327 443 1 0.651200 16.180616 21.776419 23.835648 # C_EP1 CO2
1328 443 2 -0.325600 15.585617 22.243420 24.715645 # O_EP2 CO2
1329 443 3 -0.325600 16.775616 21.310421 22.956646 # O_EP3 CO2
1330 444 1 0.651200 7.054616 9.766419 27.510645 # C_EP1 CO2
1331 444 2 -0.325600 7.675617 9.197419 28.308647 # O_EP2 CO2
1332 444 3 -0.325600 6.433616 10.334419 26.712646 # O_EP3 CO2
1333 445 1 0.651200 19.186615 29.095419 1.868646 # C_EP1 CO2
1334 445 2 -0.325600 19.899616 29.503420 2.687646 # O_EP2 CO2
1335 445 3 -0.325600 18.474617 28.686419 1.048646 # O_EP3 CO2
1336 446 1 0.651200 10.006617 25.577419 16.733646 # C_EP1 CO2
1337 446 2 -0.325600 9.959617 26.247421 17.679646 # O_EP2 CO2
1338 446 3 -0.325600 10.053617 24.908419 15.787645 # O_EP3 CO2
1339 447 1 0.651200 5.396616 9.908420 31.163647 # C_EP1 CO2
1340 447 2 -0.325600 6.143617 9.195419 31.691647 # O_EP2 CO2
1341 447 3 -0.325600 4.648616 10.621419 30.634647 # O_EP3 CO2
1342 448 1 0.651200 1.527617 28.465420 2.588646 # C_EP1 CO2
1343 448 2 -0.325600 2.094617 28.128418 1.634646 # O_EP2 CO2
1344 448 3 -0.325600 0.960616 28.801420 3.543646 # O_EP3 CO2
1345 449 1 0.651200 30.993616 2.674420 30.097647 # C_EP1 CO2
1346 449 2 -0.325600 31.249617 3.640419 29.508646 # O_EP2 CO2
1347 449 3 -0.325600 30.737617 1.708419 30.686646 # O_EP3 CO2
1348 450 1 0.651200 8.825616 36.500420 29.045647 # C_EP1 CO2
1349 450 2 -0.325600 8.618616 36.158417 27.956646 # O_EP2 CO2
1350 450 3 -0.325600 9.031616 36.841419 30.135647 # O_EP3 CO2
1351 451 1 0.651200 13.657617 15.966419 37.780643 # C_EP1 CO2
1352 451 2 -0.325600 12.612617 16.291420 37.395645 # O_EP2 CO2
1353 451 3 -0.325600 14.702617 15.642419 38.164646 # O_EP3 CO2
1354 452 1 0.651200 13.310616 37.153419 37.691647 # C_EP1 CO2
1355 452 2 -0.325600 12.472616 36.389420 37.444645 # O_EP2 CO2
1356 452 3 -0.325600 14.147616 37.917419 37.938644 # O_EP3 CO2
1357 453 1 0.651200 14.196616 11.710420 5.979646 # C_EP1 CO2
1358 453 2 -0.325600 13.171617 11.858419 6.501646 # O_EP2 CO2
1359 453 3 -0.325600 15.222616 11.563419 5.457646 # O_EP3 CO2
1360 454 1 0.651200 25.686617 32.875420 18.875647 # C_EP1 CO2
1361 454 2 -0.325600 25.067616 33.830418 19.097647 # O_EP2 CO2
1362 454 3 -0.325600 26.306618 31.920418 18.653645 # O_EP3 CO2
1363 455 1 0.651200 26.322617 36.818420 31.467646 # C_EP1 CO2
1364 455 2 -0.325600 27.297615 36.465420 31.987646 # O_EP2 CO2
1365 455 3 -0.325600 25.347616 37.171417 30.948647 # O_EP3 CO2
1366 456 1 0.651200 36.796616 34.233421 10.554646 # C_EP1 CO2
1367 456 2 -0.325600 37.753616 33.944420 11.142646 # O_EP2 CO2
1368 456 3 -0.325600 35.838615 34.521420 9.967647 # O_EP3 CO2
1369 457 1 0.651200 33.121616 30.115417 10.367646 # C_EP1 CO2
1370 457 2 -0.325600 33.095619 30.028419 11.523646 # O_EP2 CO2
1371 457 3 -0.325600 33.147617 30.202419 9.210646 # O_EP3 CO2
1372 458 1 0.651200 20.698616 12.613420 29.640646 # C_EP1 CO2
1373 458 2 -0.325600 20.606615 12.235420 30.733644 # O_EP2 CO2
1374 458 3 -0.325600 20.791616 12.992419 28.548645 # O_EP3 CO2
1375 459 1 0.651200 2.912616 10.778419 22.812645 # C_EP1 CO2
1376 459 2 -0.325600 3.852617 10.595419 23.466646 # O_EP2 CO2
1377 459 3 -0.325600 1.972616 10.960419 22.157646 # O_EP3 CO2
1378 460 1 0.651200 29.717617 12.275419 13.447646 # C_EP1 CO2
1379 460 2 -0.325600 29.964617 11.882420 14.510646 # O_EP2 CO2
1380 460 3 -0.325600 29.470615 12.668419 12.384645 # O_EP3 CO2
1381 461 1 0.651200 29.003616 9.212420 14.396646 # C_EP1 CO2
1382 461 2 -0.325600 28.930616 8.446419 13.527646 # O_EP2 CO2
1383 461 3 -0.325600 29.077616 9.978419 15.264646 # O_EP3 CO2
1384 462 1 0.651200 28.212616 37.184418 12.588646 # C_EP1 CO2
1385 462 2 -0.325600 28.297617 36.094421 12.978645 # O_EP2 CO2
1386 462 3 -0.325600 28.127615 38.273422 12.199646 # O_EP3 CO2
1387 463 1 0.651200 9.886617 16.178419 13.291646 # C_EP1 CO2
1388 463 2 -0.325600 9.194616 15.833420 14.156646 # O_EP2 CO2
1389 463 3 -0.325600 10.577617 16.523420 12.425646 # O_EP3 CO2
1390 464 1 0.651200 13.961617 29.725420 28.573647 # C_EP1 CO2
1391 464 2 -0.325600 14.977616 29.890421 29.107647 # O_EP2 CO2
1392 464 3 -0.325600 12.944616 29.559420 28.040646 # O_EP3 CO2
1393 465 1 0.651200 22.279615 37.819420 24.456646 # C_EP1 CO2
1394 465 2 -0.325600 22.087616 37.521420 25.561646 # O_EP2 CO2
1395 465 3 -0.325600 22.470617 38.117416 23.352646 # O_EP3 CO2
1396 466 1 0.651200 28.314617 13.809420 6.753646 # C_EP1 CO2
1397 466 2 -0.325600 28.308617 13.851419 5.593646 # O_EP2 CO2
1398 466 3 -0.325600 28.319616 13.768419 7.912646 # O_EP3 CO2
1399 467 1 0.651200 3.440616 5.114419 26.131647 # C_EP1 CO2
1400 467 2 -0.325600 4.461617 4.642419 25.846645 # O_EP2 CO2
1401 467 3 -0.325600 2.420616 5.585420 26.416645 # O_EP3 CO2
1402 468 1 0.651200 35.867619 12.566420 24.444647 # C_EP1 CO2
1403 468 2 -0.325600 35.499615 13.000420 23.433647 # O_EP2 CO2
1404 468 3 -0.325600 36.234619 12.132420 25.456646 # O_EP3 CO2
1405 469 1 0.651200 37.063614 26.068420 20.085648 # C_EP1 CO2
1406 469 2 -0.325600 37.575615 25.340420 20.828646 # O_EP2 CO2
1407 469 3 -0.325600 36.550617 26.795418 19.341646 # O_EP3 CO2
1408 470 1 0.651200 20.226616 29.759418 27.580645 # C_EP1 CO2
1409 470 2 -0.325600 20.819616 30.675419 27.185646 # O_EP2 CO2
1410 470 3 -0.325600 19.634617 28.843420 27.974646 # O_EP3 CO2
1411 471 1 0.651200 11.522616 4.241419 8.729647 # C_EP1 CO2
1412 471 2 -0.325600 11.222616 3.558419 7.841646 # O_EP2 CO2
1413 471 3 -0.325600 11.823616 4.924419 9.617645 # O_EP3 CO2
1414 472 1 0.651200 34.900620 23.681419 23.745647 # C_EP1 CO2
1415 472 2 -0.325600 34.891617 22.809420 24.511644 # O_EP2 CO2
1416 472 3 -0.325600 34.910618 24.552420 22.980648 # O_EP3 CO2
1417 473 1 0.651200 31.632616 19.572418 36.900646 # C_EP1 CO2
1418 473 2 -0.325600 32.453617 19.791420 36.109646 # O_EP2 CO2
1419 473 3 -0.325600 30.812616 19.353420 37.690647 # O_EP3 CO2
1420 474 1 0.651200 15.013617 15.559420 8.458646 # C_EP1 CO2
1421 474 2 -0.325600 14.623617 15.678419 9.544645 # O_EP2 CO2
1422 474 3 -0.325600 15.402617 15.440420 7.372646 # O_EP3 CO2
1423 475 1 0.651200 12.057617 21.054420 6.895646 # C_EP1 CO2
1424 475 2 -0.325600 11.994617 20.279419 6.034646 # O_EP2 CO2
1425 475 3 -0.325600 12.119617 21.829418 7.756646 # O_EP3 CO2
1426 476 1 0.651200 38.153618 33.851418 26.988647 # C_EP1 CO2
1427 476 2 -0.325600 37.977615 32.722420 26.785645 # O_EP2 CO2
1428 476 3 -0.325600 38.329617 34.979420 27.191647 # O_EP3 CO2
1429 477 1 0.651200 4.821616 4.958419 22.538645 # C_EP1 CO2
1430 477 2 -0.325600 4.703617 4.284420 23.475647 # O_EP2 CO2
1431 477 3 -0.325600 4.940617 5.631419 21.601646 # O_EP3 CO2
1432 478 1 0.651200 27.054617 29.472420 24.724646 # C_EP1 CO2
1433 478 2 -0.325600 27.015617 29.655418 25.868647 # O_EP2 CO2
1434 478 3 -0.325600 27.093616 29.290419 23.579645 # O_EP3 CO2
1435 479 1 0.651200 31.709616 16.225418 34.528648 # C_EP1 CO2
1436 479 2 -0.325600 30.555614 16.272419 34.642647 # O_EP2 CO2
1437 479 3 -0.325600 32.862617 16.178419 34.415646 # O_EP3 CO2
1438 480 1 0.651200 32.717617 23.730419 23.289646 # C_EP1 CO2
1439 480 2 -0.325600 32.678616 24.066420 22.179646 # O_EP2 CO2
1440 480 3 -0.325600 32.756618 23.394421 24.398647 # O_EP3 CO2
1441 481 1 0.651200 14.002617 32.747417 4.627646 # C_EP1 CO2
1442 481 2 -0.325600 14.072617 32.865417 3.475646 # O_EP2 CO2
1443 481 3 -0.325600 13.931617 32.629417 5.779646 # O_EP3 CO2
1444 482 1 0.651200 9.396616 20.730419 14.656647 # C_EP1 CO2
1445 482 2 -0.325600 9.075617 19.626419 14.503646 # O_EP2 CO2
1446 482 3 -0.325600 9.717617 21.834419 14.809647 # O_EP3 CO2
1447 483 1 0.651200 34.377617 12.391419 16.181646 # C_EP1 CO2
1448 483 2 -0.325600 34.019615 12.418419 17.284645 # O_EP2 CO2
1449 483 3 -0.325600 34.735619 12.364420 15.078646 # O_EP3 CO2
1450 484 1 0.651200 20.901615 9.060419 30.691645 # C_EP1 CO2
1451 484 2 -0.325600 21.068615 8.946420 29.548645 # O_EP2 CO2
1452 484 3 -0.325600 20.733616 9.173420 31.833647 # O_EP3 CO2
1453 485 1 0.651200 36.613617 27.982418 29.582645 # C_EP1 CO2
1454 485 2 -0.325600 36.737617 28.759420 28.730644 # O_EP2 CO2
1455 485 3 -0.325600 36.488617 27.204420 30.433645 # O_EP3 CO2
1456 486 1 0.651200 23.289616 15.303420 29.980644 # C_EP1 CO2
1457 486 2 -0.325600 23.178616 15.201420 31.130646 # O_EP2 CO2
1458 486 3 -0.325600 23.399618 15.405418 28.830645 # O_EP3 CO2
1459 487 1 0.651200 18.423616 20.458420 15.115646 # C_EP1 CO2
1460 487 2 -0.325600 19.124617 19.761419 15.723646 # O_EP2 CO2
1461 487 3 -0.325600 17.722616 21.154421 14.508646 # O_EP3 CO2
1462 488 1 0.651200 30.399616 30.237419 21.411646 # C_EP1 CO2
1463 488 2 -0.325600 30.885616 31.070419 20.766647 # O_EP2 CO2
1464 488 3 -0.325600 29.913616 29.404419 22.056646 # O_EP3 CO2
1465 489 1 0.651200 1.865616 17.947420 9.667645 # C_EP1 CO2
1466 489 2 -0.325600 2.436616 18.940418 9.484646 # O_EP2 CO2
1467 489 3 -0.325600 1.294616 16.954420 9.850646 # O_EP3 CO2
1468 490 1 0.651200 22.907618 8.920420 21.957645 # C_EP1 CO2
1469 490 2 -0.325600 22.780617 9.058419 20.812645 # O_EP2 CO2
1470 490 3 -0.325600 23.034615 8.782419 23.101646 # O_EP3 CO2
1471 491 1 0.651200 21.973618 29.229420 37.121647 # C_EP1 CO2
1472 491 2 -0.325600 22.090616 29.267418 38.275646 # O_EP2 CO2
1473 491 3 -0.325600 21.856615 29.190418 35.968647 # O_EP3 CO2
1474 492 1 0.651200 12.698617 18.534420 12.690645 # C_EP1 CO2
1475 492 2 -0.325600 12.891617 18.502419 13.833646 # O_EP2 CO2
1476 492 3 -0.325600 12.505616 18.567419 11.547647 # O_EP3 CO2
1477 493 1 0.651200 35.973618 38.111420 34.098648 # C_EP1 CO2
1478 493 2 -0.325600 36.013618 38.149418 32.939648 # O_EP2 CO2
1479 493 3 -0.325600 35.932617 38.073421 35.257648 # O_EP3 CO2
1480 494 1 0.651200 36.628616 6.408420 4.441646 # C_EP1 CO2
1481 494 2 -0.325600 35.888618 5.564420 4.151646 # O_EP2 CO2
1482 494 3 -0.325600 37.369617 7.252419 4.731646 # O_EP3 CO2
1483 495 1 0.651200 10.173616 23.530418 5.415646 # C_EP1 CO2
1484 495 2 -0.325600 10.878616 22.693420 5.799646 # O_EP2 CO2
1485 495 3 -0.325600 9.468616 24.368420 5.031646 # O_EP3 CO2
1486 496 1 0.651200 37.676617 7.208419 28.604645 # C_EP1 CO2
1487 496 2 -0.325600 38.286617 7.343419 27.627647 # O_EP2 CO2
1488 496 3 -0.325600 37.066616 7.072420 29.581646 # O_EP3 CO2
1489 497 1 0.651200 13.423616 17.520420 20.426645 # C_EP1 CO2
1490 497 2 -0.325600 13.838616 17.125420 21.435646 # O_EP2 CO2
1491 497 3 -0.325600 13.008615 17.915419 19.418646 # O_EP3 CO2
1492 498 1 0.651200 1.776617 20.548420 6.355646 # C_EP1 CO2
1493 498 2 -0.325600 1.731616 20.714418 5.207646 # O_EP2 CO2
1494 498 3 -0.325600 1.821616 20.382420 7.502646 # O_EP3 CO2
1495 499 1 0.651200 0.778617 7.010419 11.666646 # C_EP1 CO2
1496 499 2 -0.325600 0.803617 6.682419 12.778646 # O_EP2 CO2
1497 499 3 -0.325600 0.753616 7.339420 10.554646 # O_EP3 CO2
1498 500 1 0.651200 21.466618 19.176420 29.470646 # C_EP1 CO2
1499 500 2 -0.325600 22.462616 18.960421 30.025646 # O_EP2 CO2
1500 500 3 -0.325600 20.471615 19.392418 28.915646 # O_EP3 CO2
1501 501 1 0.651200 37.453617 7.632420 20.956646 # C_EP1 CO2
1502 501 2 -0.325600 37.738617 6.841419 20.156647 # O_EP2 CO2
1503 501 3 -0.325600 37.168617 8.422420 21.756647 # O_EP3 CO2
1504 502 1 0.651200 15.237617 7.170420 37.910645 # C_EP1 CO2
1505 502 2 -0.325600 16.252617 7.677419 37.665646 # O_EP2 CO2
1506 502 3 -0.325600 14.223616 6.664419 38.156647 # O_EP3 CO2
1507 503 1 0.651200 6.396617 21.226421 25.567646 # C_EP1 CO2
1508 503 2 -0.325600 7.057617 20.488419 26.170647 # O_EP2 CO2
1509 503 3 -0.325600 5.735617 21.963421 24.963646 # O_EP3 CO2
1510 504 1 0.651200 13.373617 23.828419 26.407646 # C_EP1 CO2
1511 504 2 -0.325600 13.770617 23.301420 25.453646 # O_EP2 CO2
1512 504 3 -0.325600 12.976617 24.354420 27.361645 # O_EP3 CO2
1513 505 1 0.651200 38.103615 4.758420 3.206646 # C_EP1 CO2
1514 505 2 -0.325600 37.878616 4.369420 4.275646 # O_EP2 CO2
1515 505 3 -0.325600 38.329617 5.147419 2.136646 # O_EP3 CO2
1516 506 1 0.651200 12.220616 15.794419 25.219646 # C_EP1 CO2
1517 506 2 -0.325600 12.059617 16.940420 25.137646 # O_EP2 CO2
1518 506 3 -0.325600 12.380617 14.649420 25.300646 # O_EP3 CO2
1519 507 1 0.651200 35.769619 7.121419 8.922646 # C_EP1 CO2
1520 507 2 -0.325600 36.675613 7.561419 8.346645 # O_EP2 CO2
1521 507 3 -0.325600 34.864616 6.681419 9.498646 # O_EP3 CO2
1522 508 1 0.651200 11.386616 29.851419 18.322645 # C_EP1 CO2
1523 508 2 -0.325600 11.395617 30.280418 19.400646 # O_EP2 CO2
1524 508 3 -0.325600 11.377616 29.422419 17.244646 # O_EP3 CO2
1525 509 1 0.651200 26.226616 22.567421 27.020645 # C_EP1 CO2
1526 509 2 -0.325600 25.262615 23.025419 27.474648 # O_EP2 CO2
1527 509 3 -0.325600 27.190617 22.108419 26.566647 # O_EP3 CO2
1528 510 1 0.651200 36.078617 34.266418 20.066645 # C_EP1 CO2
1529 510 2 -0.325600 36.199615 33.813419 21.127645 # O_EP2 CO2
1530 510 3 -0.325600 35.958618 34.719421 19.005646 # O_EP3 CO2
1531 511 1 0.651200 28.997616 19.587420 20.214645 # C_EP1 CO2
1532 511 2 -0.325600 29.940617 20.032421 20.722647 # O_EP2 CO2
1533 511 3 -0.325600 28.054617 19.142420 19.705647 # O_EP3 CO2
1534 512 1 0.651200 17.222616 3.660419 7.919646 # C_EP1 CO2
1535 512 2 -0.325600 17.524616 4.392419 8.766645 # O_EP2 CO2
1536 512 3 -0.325600 16.920616 2.927420 7.072646 # O_EP3 CO2
1537 513 1 0.651200 6.977616 10.337420 15.283647 # C_EP1 CO2
1538 513 2 -0.325600 6.436617 10.545420 16.288647 # O_EP2 CO2
1539 513 3 -0.325600 7.518616 10.129419 14.278646 # O_EP3 CO2
1540 514 1 0.651200 20.654617 38.607418 9.676646 # C_EP1 CO2
1541 514 2 -0.325600 19.834616 38.842422 10.462646 # O_EP2 CO2
1542 514 3 -0.325600 21.474617 38.371422 8.890646 # O_EP3 CO2
1543 515 1 0.651200 14.654616 36.901421 28.272646 # C_EP1 CO2
1544 515 2 -0.325600 15.706616 36.427418 28.147644 # O_EP2 CO2
1545 515 3 -0.325600 13.603617 37.374420 28.396646 # O_EP3 CO2
1546 516 1 0.651200 26.649616 14.737419 11.929646 # C_EP1 CO2
1547 516 2 -0.325600 26.302616 14.018420 12.770645 # O_EP2 CO2
1548 516 3 -0.325600 26.997616 15.456419 11.088646 # O_EP3 CO2
1549 517 1 0.651200 27.460615 9.968420 18.811646 # C_EP1 CO2
1550 517 2 -0.325600 27.141617 9.578420 17.767647 # O_EP2 CO2
1551 517 3 -0.325600 27.779617 10.358419 19.856646 # O_EP3 CO2
1552 518 1 0.651200 21.309616 4.657419 20.145645 # C_EP1 CO2
1553 518 2 -0.325600 21.532616 5.794420 20.105646 # O_EP2 CO2
1554 518 3 -0.325600 21.086617 3.519419 20.185646 # O_EP3 CO2
1555 519 1 0.651200 4.795616 9.241420 27.783646 # C_EP1 CO2
1556 519 2 -0.325600 5.265617 8.426419 27.105646 # O_EP2 CO2
1557 519 3 -0.325600 4.325616 10.057420 28.460646 # O_EP3 CO2
1558 520 1 0.651200 9.503616 19.127419 11.761646 # C_EP1 CO2
1559 520 2 -0.325600 8.448616 18.646420 11.794645 # O_EP2 CO2
1560 520 3 -0.325600 10.558616 19.608419 11.728645 # O_EP3 CO2
1561 521 1 0.651200 33.382614 36.144417 21.438646 # C_EP1 CO2
1562 521 2 -0.325600 33.515617 36.549419 22.517645 # O_EP2 CO2
1563 521 3 -0.325600 33.249619 35.740417 20.359646 # O_EP3 CO2
1564 522 1 0.651200 28.300617 19.659420 4.167646 # C_EP1 CO2
1565 522 2 -0.325600 28.579617 19.265419 5.221646 # O_EP2 CO2
1566 522 3 -0.325600 28.021618 20.052418 3.112646 # O_EP3 CO2
1567 523 1 0.651200 30.901615 20.461418 14.602646 # C_EP1 CO2
1568 523 2 -0.325600 29.918615 20.078419 14.118647 # O_EP2 CO2
1569 523 3 -0.325600 31.883617 20.845421 15.085646 # O_EP3 CO2
1570 524 1 0.651200 1.683617 11.467420 4.084646 # C_EP1 CO2
1571 524 2 -0.325600 2.641616 11.195420 4.680646 # O_EP2 CO2
1572 524 3 -0.325600 0.726617 11.739420 3.487646 # O_EP3 CO2
1573 525 1 0.651200 16.300617 26.713419 30.996647 # C_EP1 CO2
1574 525 2 -0.325600 15.496616 26.020420 30.528645 # O_EP2 CO2
1575 525 3 -0.325600 17.104616 27.406418 31.463646 # O_EP3 CO2
1576 526 1 0.651200 26.951616 28.173420 35.787647 # C_EP1 CO2
1577 526 2 -0.325600 27.488615 27.517418 36.578644 # O_EP2 CO2
1578 526 3 -0.325600 26.413616 28.828419 34.995647 # O_EP3 CO2
1579 527 1 0.651200 23.473616 13.646420 6.067646 # C_EP1 CO2
1580 527 2 -0.325600 23.500616 14.786420 6.279646 # O_EP2 CO2
1581 527 3 -0.325600 23.446617 12.506419 5.855646 # O_EP3 CO2
1582 528 1 0.651200 17.522617 13.764420 30.703648 # C_EP1 CO2
1583 528 2 -0.325600 17.543617 14.174419 31.789646 # O_EP2 CO2
1584 528 3 -0.325600 17.501617 13.354420 29.618647 # O_EP3 CO2
1585 529 1 0.651200 33.577618 17.152420 18.223646 # C_EP1 CO2
1586 529 2 -0.325600 32.569614 17.423420 17.717646 # O_EP2 CO2
1587 529 3 -0.325600 34.586617 16.881420 18.729647 # O_EP3 CO2
1588 530 1 0.651200 11.380616 11.148419 28.388645 # C_EP1 CO2
1589 530 2 -0.325600 11.427617 11.345420 27.246647 # O_EP2 CO2
1590 530 3 -0.325600 11.334616 10.952419 29.530647 # O_EP3 CO2
1591 531 1 0.651200 19.681616 21.486418 27.158646 # C_EP1 CO2
1592 531 2 -0.325600 20.032616 21.835421 26.108646 # O_EP2 CO2
1593 531 3 -0.325600 19.331615 21.138420 28.207645 # O_EP3 CO2
1594 532 1 0.651200 1.602616 1.484419 30.920647 # C_EP1 CO2
1595 532 2 -0.325600 2.329617 1.242419 30.048647 # O_EP2 CO2
1596 532 3 -0.325600 0.876617 1.726419 31.791647 # O_EP3 CO2
1597 533 1 0.651200 27.035616 37.420418 1.956646 # C_EP1 CO2
1598 533 2 -0.325600 26.759617 36.539417 2.658646 # O_EP2 CO2
1599 533 3 -0.325600 27.312618 38.300419 1.253646 # O_EP3 CO2
1600 534 1 0.651200 26.481617 7.102419 32.720646 # C_EP1 CO2
1601 534 2 -0.325600 26.379616 7.171419 33.873646 # O_EP2 CO2
1602 534 3 -0.325600 26.584616 7.033420 31.566647 # O_EP3 CO2
1603 535 1 0.651200 10.624617 37.965420 35.810646 # C_EP1 CO2
1604 535 2 -0.325600 10.764617 37.663418 34.699646 # O_EP2 CO2
1605 535 3 -0.325600 10.484617 38.268417 36.921646 # O_EP3 CO2
1606 536 1 0.651200 25.258617 22.363419 13.930646 # C_EP1 CO2
1607 536 2 -0.325600 25.654617 21.299419 14.171646 # O_EP2 CO2
1608 536 3 -0.325600 24.862616 23.426418 13.689646 # O_EP3 CO2
1609 537 1 0.651200 28.306616 9.152420 1.323646 # C_EP1 CO2
1610 537 2 -0.325600 29.371616 9.358419 1.735646 # O_EP2 CO2
1611 537 3 -0.325600 27.241615 8.946420 0.912646 # O_EP3 CO2
1612 538 1 0.651200 12.351617 2.870419 27.718647 # C_EP1 CO2
1613 538 2 -0.325600 11.997616 1.853419 28.149645 # O_EP2 CO2
1614 538 3 -0.325600 12.706615 3.888420 27.287645 # O_EP3 CO2
1615 539 1 0.651200 5.038617 37.273418 36.324646 # C_EP1 CO2
1616 539 2 -0.325600 5.027617 37.012421 35.193645 # O_EP2 CO2
1617 539 3 -0.325600 5.049617 37.534420 37.454647 # O_EP3 CO2
1618 540 1 0.651200 36.149616 16.976419 34.830647 # C_EP1 CO2
1619 540 2 -0.325600 35.137619 17.246420 35.327648 # O_EP2 CO2
1620 540 3 -0.325600 37.162617 16.706419 34.333645 # O_EP3 CO2
1621 541 1 0.651200 12.667617 3.834419 21.815645 # C_EP1 CO2
1622 541 2 -0.325600 13.794617 3.592419 21.683645 # O_EP2 CO2
1623 541 3 -0.325600 11.541616 4.077419 21.946648 # O_EP3 CO2
1624 542 1 0.651200 36.795616 34.243420 24.129646 # C_EP1 CO2
1625 542 2 -0.325600 36.988617 35.012421 24.975645 # O_EP2 CO2
1626 542 3 -0.325600 36.603619 33.474419 23.282646 # O_EP3 CO2
1627 543 1 0.651200 17.724617 23.360420 27.258646 # C_EP1 CO2
1628 543 2 -0.325600 17.917616 24.385418 26.751648 # O_EP2 CO2
1629 543 3 -0.325600 17.530617 22.335419 27.765646 # O_EP3 CO2
1630 544 1 0.651200 17.610617 30.882420 10.113646 # C_EP1 CO2
1631 544 2 -0.325600 17.217617 30.421419 9.124646 # O_EP2 CO2
1632 544 3 -0.325600 18.004616 31.343420 11.102647 # O_EP3 CO2
1633 545 1 0.651200 1.258616 6.678420 28.992645 # C_EP1 CO2
1634 545 2 -0.325600 1.326617 5.716419 28.347647 # O_EP2 CO2
1635 545 3 -0.325600 1.189616 7.639420 29.637646 # O_EP3 CO2
1636 546 1 0.651200 27.531616 7.527419 19.775646 # C_EP1 CO2
1637 546 2 -0.325600 27.480618 7.540420 18.617645 # O_EP2 CO2
1638 546 3 -0.325600 27.581615 7.515420 20.934647 # O_EP3 CO2
1639 547 1 0.651200 10.917617 19.711420 21.709648 # C_EP1 CO2
1640 547 2 -0.325600 11.068616 19.128420 20.717648 # O_EP2 CO2
1641 547 3 -0.325600 10.766617 20.294418 22.700645 # O_EP3 CO2
1642 548 1 0.651200 1.622617 23.061419 5.143646 # C_EP1 CO2
1643 548 2 -0.325600 1.588616 23.213421 3.993646 # O_EP2 CO2
1644 548 3 -0.325600 1.656616 22.909420 6.292646 # O_EP3 CO2
1645 549 1 0.651200 28.127615 25.526419 8.449646 # C_EP1 CO2
1646 549 2 -0.325600 28.760616 26.477421 8.648645 # O_EP2 CO2
1647 549 3 -0.325600 27.495615 24.574421 8.249646 # O_EP3 CO2
1648 550 1 0.651200 18.909616 26.851421 7.234646 # C_EP1 CO2
1649 550 2 -0.325600 18.912617 26.848419 8.394646 # O_EP2 CO2
1650 550 3 -0.325600 18.906616 26.853418 6.074646 # O_EP3 CO2
1651 551 1 0.651200 34.932617 20.558418 20.211647 # C_EP1 CO2
1652 551 2 -0.325600 35.486618 19.634420 19.779646 # O_EP2 CO2
1653 551 3 -0.325600 34.378616 21.481419 20.643646 # O_EP3 CO2
1654 552 1 0.651200 21.040615 21.917419 31.987646 # C_EP1 CO2
1655 552 2 -0.325600 20.805616 21.453419 33.024643 # O_EP2 CO2
1656 552 3 -0.325600 21.274616 22.381420 30.950645 # O_EP3 CO2
1657 553 1 0.651200 13.447617 32.411419 8.041646 # C_EP1 CO2
1658 553 2 -0.325600 14.517616 32.472420 8.484646 # O_EP2 CO2
1659 553 3 -0.325600 12.376616 32.350418 7.598646 # O_EP3 CO2
1660 554 1 0.651200 36.003616 8.235419 2.909646 # C_EP1 CO2
1661 554 2 -0.325600 35.228619 8.999419 3.310646 # O_EP2 CO2
1662 554 3 -0.325600 36.778618 7.470419 2.507646 # O_EP3 CO2
1663 555 1 0.651200 36.501617 35.236420 3.993646 # C_EP1 CO2
1664 555 2 -0.325600 36.980618 34.819420 3.023646 # O_EP2 CO2
1665 555 3 -0.325600 36.022614 35.653419 4.964646 # O_EP3 CO2
1666 556 1 0.651200 1.587616 32.597420 26.346645 # C_EP1 CO2
1667 556 2 -0.325600 1.023617 33.550419 26.002645 # O_EP2 CO2
1668 556 3 -0.325600 2.152617 31.644421 26.690645 # O_EP3 CO2
1669 557 1 0.651200 3.824616 15.401420 10.400646 # C_EP1 CO2
1670 557 2 -0.325600 4.225616 14.321419 10.530645 # O_EP2 CO2
1671 557 3 -0.325600 3.422616 16.482420 10.270645 # O_EP3 CO2
1672 558 1 0.651200 9.710617 23.905420 8.058645 # C_EP1 CO2
1673 558 2 -0.325600 8.876616 24.301418 7.355646 # O_EP2 CO2
1674 558 3 -0.325600 10.544616 23.508419 8.760646 # O_EP3 CO2
1675 559 1 0.651200 18.830616 27.066420 37.348648 # C_EP1 CO2
1676 559 2 -0.325600 18.564617 26.421421 36.422646 # O_EP2 CO2
1677 559 3 -0.325600 19.097616 27.711420 38.275646 # O_EP3 CO2
1678 560 1 0.651200 6.205616 24.189419 12.848645 # C_EP1 CO2
1679 560 2 -0.325600 6.196616 23.328419 13.625646 # O_EP2 CO2
1680 560 3 -0.325600 6.214616 25.051420 12.071647 # O_EP3 CO2
1681 561 1 0.651200 9.170616 25.941420 12.036647 # C_EP1 CO2
1682 561 2 -0.325600 9.664617 25.760420 11.003646 # O_EP2 CO2
1683 561 3 -0.325600 8.675616 26.123419 13.070646 # O_EP3 CO2
1684 562 1 0.651200 19.165615 24.836418 1.494646 # C_EP1 CO2
1685 562 2 -0.325600 19.253616 25.653419 0.675646 # O_EP2 CO2
1686 562 3 -0.325600 19.078617 24.019421 2.313646 # O_EP3 CO2
1687 563 1 0.651200 38.075615 18.554419 31.955645 # C_EP1 CO2
1688 563 2 -0.325600 37.822617 18.749420 30.840645 # O_EP2 CO2
1689 563 3 -0.325600 38.328617 18.359419 33.070644 # O_EP3 CO2
1690 564 1 0.651200 17.826616 38.170418 27.599648 # C_EP1 CO2
1691 564 2 -0.325600 17.734617 38.229420 28.753645 # O_EP2 CO2
1692 564 3 -0.325600 17.918617 38.111420 26.444645 # O_EP3 CO2
1693 565 1 0.651200 36.157616 27.410419 25.797646 # C_EP1 CO2
1694 565 2 -0.325600 36.824615 28.081419 26.469646 # O_EP2 CO2
1695 565 3 -0.325600 35.491615 26.739418 25.126646 # O_EP3 CO2
1696 566 1 0.651200 28.600616 22.670420 34.973644 # C_EP1 CO2
1697 566 2 -0.325600 28.527618 23.739418 35.417645 # O_EP2 CO2
1698 566 3 -0.325600 28.673615 21.601419 34.529644 # O_EP3 CO2
1699 567 1 0.651200 33.055614 23.704418 31.925644 # C_EP1 CO2
1700 567 2 -0.325600 33.332619 22.739420 31.345646 # O_EP2 CO2
1701 567 3 -0.325600 32.779617 24.670420 32.505646 # O_EP3 CO2
1702 568 1 0.651200 28.812616 38.796421 19.550646 # C_EP1 CO2
1703 568 2 -0.325600 28.800617 38.777420 20.710648 # O_EP2 CO2
1704 568 3 -0.325600 28.823616 38.814419 18.390646 # O_EP3 CO2
1705 569 1 0.651200 19.323616 24.424419 7.780646 # C_EP1 CO2
1706 569 2 -0.325600 19.118616 24.373419 8.921646 # O_EP2 CO2
1707 569 3 -0.325600 19.527617 24.475420 6.639647 # O_EP3 CO2
1708 570 1 0.651200 27.599617 29.033421 10.178646 # C_EP1 CO2
1709 570 2 -0.325600 27.436617 28.202419 9.385646 # O_EP2 CO2
1710 570 3 -0.325600 27.762615 29.863419 10.971646 # O_EP3 CO2
1711 571 1 0.651200 9.352616 26.515419 35.920647 # C_EP1 CO2
1712 571 2 -0.325600 9.372617 27.114420 34.927647 # O_EP2 CO2
1713 571 3 -0.325600 9.333616 25.916420 36.914646 # O_EP3 CO2
1714 572 1 0.651200 5.262616 7.666419 19.895647 # C_EP1 CO2
1715 572 2 -0.325600 4.157617 8.009419 19.802647 # O_EP2 CO2
1716 572 3 -0.325600 6.366616 7.324419 19.989645 # O_EP3 CO2
1717 573 1 0.651200 8.552616 7.070419 2.944646 # C_EP1 CO2
1718 573 2 -0.325600 8.090616 7.383419 1.927646 # O_EP2 CO2
1719 573 3 -0.325600 9.014617 6.758419 3.961646 # O_EP3 CO2
1720 574 1 0.651200 21.163616 20.926418 1.461646 # C_EP1 CO2
1721 574 2 -0.325600 20.423618 21.352421 2.246646 # O_EP2 CO2
1722 574 3 -0.325600 21.903618 20.500420 0.675646 # O_EP3 CO2
1723 575 1 0.651200 1.379616 28.952419 19.094646 # C_EP1 CO2
1724 575 2 -0.325600 2.032616 29.480419 19.895647 # O_EP2 CO2
1725 575 3 -0.325600 0.727616 28.424419 18.293646 # O_EP3 CO2
1726 576 1 0.651200 22.199615 16.282419 35.406647 # C_EP1 CO2
1727 576 2 -0.325600 22.609615 15.345420 34.858646 # O_EP2 CO2
1728 576 3 -0.325600 21.790617 17.218420 35.954647 # O_EP3 CO2
1729 577 1 0.651200 25.486618 13.299419 29.542646 # C_EP1 CO2
1730 577 2 -0.325600 26.124615 13.605419 30.461645 # O_EP2 CO2
1731 577 3 -0.325600 24.848616 12.993420 28.623646 # O_EP3 CO2
1732 578 1 0.651200 10.091616 33.968422 12.848645 # C_EP1 CO2
1733 578 2 -0.325600 10.192616 34.727417 11.977646 # O_EP2 CO2
1734 578 3 -0.325600 9.989616 33.209419 13.720646 # O_EP3 CO2
1735 579 1 0.651200 9.128616 28.151419 24.072647 # C_EP1 CO2
1736 579 2 -0.325600 8.617617 27.218420 23.611645 # O_EP2 CO2
1737 579 3 -0.325600 9.639616 29.085419 24.533646 # O_EP3 CO2
1738 580 1 0.651200 18.033617 12.861420 21.433647 # C_EP1 CO2
1739 580 2 -0.325600 17.802616 13.473419 20.475645 # O_EP2 CO2
1740 580 3 -0.325600 18.264616 12.249420 22.391645 # O_EP3 CO2
1741 581 1 0.651200 2.697617 17.701420 7.277646 # C_EP1 CO2
1742 581 2 -0.325600 3.834617 17.499420 7.380646 # O_EP2 CO2
1743 581 3 -0.325600 1.559616 17.902420 7.173646 # O_EP3 CO2
1744 582 1 0.651200 30.811617 30.169420 7.360646 # C_EP1 CO2
1745 582 2 -0.325600 31.079617 30.353420 8.474647 # O_EP2 CO2
1746 582 3 -0.325600 30.543615 29.986420 6.246646 # O_EP3 CO2
1747 583 1 0.651200 25.506615 27.047421 32.768646 # C_EP1 CO2
1748 583 2 -0.325600 24.481617 26.544418 32.565647 # O_EP2 CO2
1749 583 3 -0.325600 26.531618 27.551420 32.971645 # O_EP3 CO2
1750 584 1 0.651200 5.554616 35.607418 30.746647 # C_EP1 CO2
1751 584 2 -0.325600 5.364616 35.617416 29.601646 # O_EP2 CO2
1752 584 3 -0.325600 5.744617 35.596420 31.890644 # O_EP3 CO2
1753 585 1 0.651200 23.220615 3.480420 13.872646 # C_EP1 CO2
1754 585 2 -0.325600 24.041616 2.705419 13.608646 # O_EP2 CO2
1755 585 3 -0.325600 22.399616 4.256420 14.136646 # O_EP3 CO2
1756 586 1 0.651200 37.322617 35.609421 7.939646 # C_EP1 CO2
1757 586 2 -0.325600 38.265617 35.987419 8.499646 # O_EP2 CO2
1758 586 3 -0.325600 36.380619 35.230419 7.378646 # O_EP3 CO2
1759 587 1 0.651200 22.889616 28.588419 13.221646 # C_EP1 CO2
1760 587 2 -0.325600 23.132618 28.497419 12.090646 # O_EP2 CO2
1761 587 3 -0.325600 22.647617 28.680420 14.352646 # O_EP3 CO2
1762 588 1 0.651200 29.212616 6.162419 8.613646 # C_EP1 CO2
1763 588 2 -0.325600 29.728619 7.075419 9.108646 # O_EP2 CO2
1764 588 3 -0.325600 28.695618 5.249419 8.118647 # O_EP3 CO2
1765 589 1 0.651200 28.959618 25.199421 32.104649 # C_EP1 CO2
1766 589 2 -0.325600 29.087618 25.173418 30.952646 # O_EP2 CO2
1767 589 3 -0.325600 28.830616 25.225420 33.257645 # O_EP3 CO2
1768 590 1 0.651200 16.860617 32.255417 6.573646 # C_EP1 CO2
1769 590 2 -0.325600 16.586617 32.322418 5.447646 # O_EP2 CO2
1770 590 3 -0.325600 17.134617 32.189419 7.698646 # O_EP3 CO2
1771 591 1 0.651200 21.831617 14.899420 16.571646 # C_EP1 CO2
1772 591 2 -0.325600 21.454617 15.617419 15.741646 # O_EP2 CO2
1773 591 3 -0.325600 22.208616 14.181419 17.400646 # O_EP3 CO2
1774 592 1 0.651200 13.082617 23.307419 17.477646 # C_EP1 CO2
1775 592 2 -0.325600 12.384616 24.043419 18.041647 # O_EP2 CO2
1776 592 3 -0.325600 13.780617 22.571419 16.914646 # O_EP3 CO2
1777 593 1 0.651200 1.838616 1.977419 26.014645 # C_EP1 CO2
1778 593 2 -0.325600 0.818616 2.484420 26.232645 # O_EP2 CO2
1779 593 3 -0.325600 2.859617 1.470419 25.797646 # O_EP3 CO2
1780 594 1 0.651200 15.450617 27.187420 28.508646 # C_EP1 CO2
1781 594 2 -0.325600 14.338616 27.148418 28.182644 # O_EP2 CO2
1782 594 3 -0.325600 16.563618 27.227419 28.835648 # O_EP3 CO2
1783 595 1 0.651200 31.781616 17.468418 32.560646 # C_EP1 CO2
1784 595 2 -0.325600 31.981617 18.401419 33.220646 # O_EP2 CO2
1785 595 3 -0.325600 31.582615 16.536419 31.900646 # O_EP3 CO2
1786 596 1 0.651200 16.245617 4.173419 23.108646 # C_EP1 CO2
1787 596 2 -0.325600 16.814617 5.170419 23.273647 # O_EP2 CO2
1788 596 3 -0.325600 15.675616 3.175420 22.944645 # O_EP3 CO2
1789 597 1 0.651200 25.950615 7.830420 24.251648 # C_EP1 CO2
1790 597 2 -0.325600 25.472618 7.444419 23.268646 # O_EP2 CO2
1791 597 3 -0.325600 26.428616 8.217420 25.235645 # O_EP3 CO2
1792 598 1 0.651200 6.494617 37.548420 29.183645 # C_EP1 CO2
1793 598 2 -0.325600 6.056616 37.622417 28.111647 # O_EP2 CO2
1794 598 3 -0.325600 6.931617 37.474419 30.255646 # O_EP3 CO2
1795 599 1 0.651200 29.612617 30.131418 17.769646 # C_EP1 CO2
1796 599 2 -0.325600 28.986616 29.633419 16.929646 # O_EP2 CO2
1797 599 3 -0.325600 30.238617 30.629421 18.609646 # O_EP3 CO2
1798 600 1 0.651200 1.863617 8.508419 5.237646 # C_EP1 CO2
1799 600 2 -0.325600 2.419617 9.088420 6.074646 # O_EP2 CO2
1800 600 3 -0.325600 1.308617 7.928420 4.401646 # O_EP3 CO2
1801 601 1 0.651200 14.122616 5.802419 14.847646 # C_EP1 CO2
1802 601 2 -0.325600 14.074616 5.313420 13.797646 # O_EP2 CO2
1803 601 3 -0.325600 14.170617 6.291419 15.898646 # O_EP3 CO2
1804 602 1 0.651200 19.241617 18.295420 33.965645 # C_EP1 CO2
1805 602 2 -0.325600 19.229616 18.901421 32.976646 # O_EP2 CO2
1806 602 3 -0.325600 19.253616 17.689421 34.955647 # O_EP3 CO2
1807 603 1 0.651200 1.729617 31.127419 16.836645 # C_EP1 CO2
1808 603 2 -0.325600 0.761617 31.592419 16.398645 # O_EP2 CO2
1809 603 3 -0.325600 2.697617 30.661419 17.273647 # O_EP3 CO2
1810 604 1 0.651200 10.380616 9.021420 18.946646 # C_EP1 CO2
1811 604 2 -0.325600 10.854616 8.008419 18.637646 # O_EP2 CO2
1812 604 3 -0.325600 9.906616 10.034419 19.256645 # O_EP3 CO2
1813 605 1 0.651200 30.215616 31.862419 4.120646 # C_EP1 CO2
1814 605 2 -0.325600 29.420616 32.487419 4.689646 # O_EP2 CO2
1815 605 3 -0.325600 31.009617 31.237419 3.551646 # O_EP3 CO2
1816 606 1 0.651200 20.808617 18.770420 37.165646 # C_EP1 CO2
1817 606 2 -0.325600 20.791616 19.272419 36.120647 # O_EP2 CO2
1818 606 3 -0.325600 20.825617 18.268419 38.211647 # O_EP3 CO2
1819 607 1 0.651200 9.894617 5.731420 28.848646 # C_EP1 CO2
1820 607 2 -0.325600 10.732616 5.879419 29.636646 # O_EP2 CO2
1821 607 3 -0.325600 9.055616 5.583419 28.060646 # O_EP3 CO2
1822 608 1 0.651200 6.412616 5.874419 2.523646 # C_EP1 CO2
1823 608 2 -0.325600 6.583617 4.855419 1.995646 # O_EP2 CO2
1824 608 3 -0.325600 6.241617 6.893420 3.051646 # O_EP3 CO2
1825 609 1 0.651200 33.133617 28.264420 32.795647 # C_EP1 CO2
1826 609 2 -0.325600 33.831615 28.211420 33.719646 # O_EP2 CO2
1827 609 3 -0.325600 32.434616 28.317421 31.870647 # O_EP3 CO2
1828 610 1 0.651200 28.437616 36.070419 19.621647 # C_EP1 CO2
1829 610 2 -0.325600 28.639618 35.426418 20.565645 # O_EP2 CO2
1830 610 3 -0.325600 28.236616 36.714420 18.677647 # O_EP3 CO2
1831 611 1 0.651200 12.843616 23.279419 20.267647 # C_EP1 CO2
1832 611 2 -0.325600 13.958616 23.385420 20.571648 # O_EP2 CO2
1833 611 3 -0.325600 11.729616 23.173420 19.963646 # O_EP3 CO2
1834 612 1 0.651200 8.417617 2.215419 10.590647 # C_EP1 CO2
1835 612 2 -0.325600 7.764616 1.448419 11.164646 # O_EP2 CO2
1836 612 3 -0.325600 9.071616 2.982419 10.016646 # O_EP3 CO2
1837 613 1 0.651200 30.276615 33.312420 20.096645 # C_EP1 CO2
1838 613 2 -0.325600 30.672617 33.626419 19.053646 # O_EP2 CO2
1839 613 3 -0.325600 29.879618 32.997421 21.140648 # O_EP3 CO2
1840 614 1 0.651200 20.029617 4.482419 1.440646 # C_EP1 CO2
1841 614 2 -0.325600 20.851616 4.156419 2.190646 # O_EP2 CO2
1842 614 3 -0.325600 19.206617 4.808419 0.689646 # O_EP3 CO2
1843 615 1 0.651200 21.759617 37.080418 13.666647 # C_EP1 CO2
1844 615 2 -0.325600 22.041616 38.193420 13.497646 # O_EP2 CO2
1845 615 3 -0.325600 21.478617 35.968422 13.835646 # O_EP3 CO2
1846 616 1 0.651200 16.141617 14.020419 27.508644 # C_EP1 CO2
1847 616 2 -0.325600 15.332617 14.762420 27.883646 # O_EP2 CO2
1848 616 3 -0.325600 16.949617 13.278419 27.133646 # O_EP3 CO2
1849 617 1 0.651200 8.052617 14.531420 21.318645 # C_EP1 CO2
1850 617 2 -0.325600 7.494617 15.519420 21.075647 # O_EP2 CO2
1851 617 3 -0.325600 8.611616 13.544420 21.561646 # O_EP3 CO2
1852 618 1 0.651200 28.520618 10.310420 33.083645 # C_EP1 CO2
1853 618 2 -0.325600 27.493618 10.368420 33.619648 # O_EP2 CO2
1854 618 3 -0.325600 29.548616 10.253420 32.548645 # O_EP3 CO2
1855 619 1 0.651200 22.978615 21.500420 29.863646 # C_EP1 CO2
1856 619 2 -0.325600 22.644617 21.591419 28.756647 # O_EP2 CO2
1857 619 3 -0.325600 23.312616 21.410419 30.970646 # O_EP3 CO2
1858 620 1 0.651200 30.641615 16.171419 25.848646 # C_EP1 CO2
1859 620 2 -0.325600 29.813616 16.619419 25.170647 # O_EP2 CO2
1860 620 3 -0.325600 31.469616 15.722419 26.525646 # O_EP3 CO2
1861 621 1 0.651200 12.073617 30.287418 2.608646 # C_EP1 CO2
1862 621 2 -0.325600 11.862617 29.538420 1.747646 # O_EP2 CO2
1863 621 3 -0.325600 12.283616 31.036419 3.468646 # O_EP3 CO2
1864 622 1 0.651200 7.486616 23.234421 11.183645 # C_EP1 CO2
1865 622 2 -0.325600 8.315617 23.982420 10.872646 # O_EP2 CO2
1866 622 3 -0.325600 6.656616 22.485418 11.495646 # O_EP3 CO2
1867 623 1 0.651200 9.333616 14.405420 17.656647 # C_EP1 CO2
1868 623 2 -0.325600 9.016617 15.511419 17.807646 # O_EP2 CO2
1869 623 3 -0.325600 9.649616 13.299419 17.505646 # O_EP3 CO2
1870 624 1 0.651200 28.589615 2.368419 17.633646 # C_EP1 CO2
1871 624 2 -0.325600 28.467617 3.495419 17.384645 # O_EP2 CO2
1872 624 3 -0.325600 28.711617 1.242419 17.881645 # O_EP3 CO2
1873 625 1 0.651200 33.233616 9.326419 31.230644 # C_EP1 CO2
1874 625 2 -0.325600 33.029617 9.816420 32.261646 # O_EP2 CO2
1875 625 3 -0.325600 33.436615 8.835420 30.198647 # O_EP3 CO2
1876 626 1 0.651200 28.094616 3.111419 8.199646 # C_EP1 CO2
1877 626 2 -0.325600 27.985615 2.963419 9.344646 # O_EP2 CO2
1878 626 3 -0.325600 28.202618 3.259419 7.054646 # O_EP3 CO2
1879 627 1 0.651200 35.963615 30.768417 33.407646 # C_EP1 CO2
1880 627 2 -0.325600 35.834618 30.804420 32.255646 # O_EP2 CO2
1881 627 3 -0.325600 36.092617 30.733418 34.559647 # O_EP3 CO2
1882 628 1 0.651200 35.112617 14.884419 8.602646 # C_EP1 CO2
1883 628 2 -0.325600 35.742615 14.142419 7.971646 # O_EP2 CO2
1884 628 3 -0.325600 34.482616 15.626420 9.234646 # O_EP3 CO2
1885 629 1 0.651200 32.121616 11.157419 15.346646 # C_EP1 CO2
1886 629 2 -0.325600 32.109615 11.255419 14.191647 # O_EP2 CO2
1887 629 3 -0.325600 32.132614 11.058420 16.502645 # O_EP3 CO2
1888 630 1 0.651200 19.970617 36.593422 29.863646 # C_EP1 CO2
1889 630 2 -0.325600 19.989616 37.334419 30.754644 # O_EP2 CO2
1890 630 3 -0.325600 19.951614 35.851418 28.971645 # O_EP3 CO2
1891 631 1 0.651200 3.498616 3.087420 5.335646 # C_EP1 CO2
1892 631 2 -0.325600 2.876616 2.481420 4.566646 # O_EP2 CO2
1893 631 3 -0.325600 4.120616 3.694420 6.104646 # O_EP3 CO2
1894 632 1 0.651200 27.845615 6.124420 27.208645 # C_EP1 CO2
1895 632 2 -0.325600 27.816618 6.571419 26.138647 # O_EP2 CO2
1896 632 3 -0.325600 27.875616 5.678420 28.279646 # O_EP3 CO2
1897 633 1 0.651200 5.097616 33.798420 5.967646 # C_EP1 CO2
1898 633 2 -0.325600 5.218616 33.178421 6.940646 # O_EP2 CO2
1899 633 3 -0.325600 4.976616 34.419418 4.994646 # O_EP3 CO2
1900 634 1 0.651200 38.262619 7.727419 11.653646 # C_EP1 CO2
1901 634 2 -0.325600 38.230618 8.862420 11.891646 # O_EP2 CO2
1902 634 3 -0.325600 38.294617 6.592419 11.416646 # O_EP3 CO2
1903 635 1 0.651200 11.837616 15.789419 19.769648 # C_EP1 CO2
1904 635 2 -0.325600 11.128616 15.952419 20.673647 # O_EP2 CO2
1905 635 3 -0.325600 12.546617 15.625420 18.866646 # O_EP3 CO2
1906 636 1 0.651200 25.401615 14.142419 7.856646 # C_EP1 CO2
1907 636 2 -0.325600 25.060616 13.525419 8.778646 # O_EP2 CO2
1908 636 3 -0.325600 25.743616 14.758420 6.935646 # O_EP3 CO2
1909 637 1 0.651200 34.257618 8.476419 24.818647 # C_EP1 CO2
1910 637 2 -0.325600 34.942619 7.720419 25.369646 # O_EP2 CO2
1911 637 3 -0.325600 33.571617 9.233419 24.267645 # O_EP3 CO2
1912 638 1 0.651200 13.026617 14.564420 2.889646 # C_EP1 CO2
1913 638 2 -0.325600 12.233616 15.300419 3.307646 # O_EP2 CO2
1914 638 3 -0.325600 13.819617 13.827419 2.471646 # O_EP3 CO2
1915 639 1 0.651200 33.211617 19.008419 8.651646 # C_EP1 CO2
1916 639 2 -0.325600 33.042618 18.053419 8.014647 # O_EP2 CO2
1917 639 3 -0.325600 33.379616 19.963419 9.287645 # O_EP3 CO2
1918 640 1 0.651200 26.358616 19.096420 5.965646 # C_EP1 CO2
1919 640 2 -0.325600 26.550617 19.270418 7.096646 # O_EP2 CO2
1920 640 3 -0.325600 26.165617 18.922421 4.835646 # O_EP3 CO2
1921 641 1 0.651200 15.730618 34.146420 7.091646 # C_EP1 CO2
1922 641 2 -0.325600 16.026615 34.063419 8.210646 # O_EP2 CO2
1923 641 3 -0.325600 15.435617 34.229420 5.973646 # O_EP3 CO2
1924 642 1 0.651200 11.159616 18.842419 1.757646 # C_EP1 CO2
1925 642 2 -0.325600 10.975616 19.409420 2.752646 # O_EP2 CO2
1926 642 3 -0.325600 11.344616 18.276421 0.762646 # O_EP3 CO2
1927 643 1 0.651200 36.869617 26.131420 9.246646 # C_EP1 CO2
1928 643 2 -0.325600 37.175617 25.473421 8.341646 # O_EP2 CO2
1929 643 3 -0.325600 36.564617 26.789419 10.151646 # O_EP3 CO2
1930 644 1 0.651200 25.156616 35.484421 16.895645 # C_EP1 CO2
1931 644 2 -0.325600 24.958618 34.887421 15.921646 # O_EP2 CO2
1932 644 3 -0.325600 25.354616 36.081421 17.870646 # O_EP3 CO2
1933 645 1 0.651200 4.251616 31.922419 23.530645 # C_EP1 CO2
1934 645 2 -0.325600 4.634616 30.843420 23.346645 # O_EP2 CO2
1935 645 3 -0.325600 3.867616 33.001419 23.714645 # O_EP3 CO2
1936 646 1 0.651200 32.896618 32.814419 8.257646 # C_EP1 CO2
1937 646 2 -0.325600 32.790615 32.764420 7.103646 # O_EP2 CO2
1938 646 3 -0.325600 33.001617 32.863419 9.411646 # O_EP3 CO2
1939 647 1 0.651200 9.056617 37.600418 19.279646 # C_EP1 CO2
1940 647 2 -0.325600 9.710617 37.716419 18.328646 # O_EP2 CO2
1941 647 3 -0.325600 8.403617 37.485420 20.231646 # O_EP3 CO2
1942 648 1 0.651200 12.060616 25.189419 10.977646 # C_EP1 CO2
1943 648 2 -0.325600 11.758615 25.895420 10.108646 # O_EP2 CO2
1944 648 3 -0.325600 12.361617 24.482420 11.847647 # O_EP3 CO2
1945 649 1 0.651200 27.987616 33.826420 11.704646 # C_EP1 CO2
1946 649 2 -0.325600 27.975616 33.883419 12.862646 # O_EP2 CO2
1947 649 3 -0.325600 27.999615 33.770420 10.545646 # O_EP3 CO2
1948 650 1 0.651200 8.686617 7.075419 11.732646 # C_EP1 CO2
1949 650 2 -0.325600 8.083616 7.740419 12.467647 # O_EP2 CO2
1950 650 3 -0.325600 9.290617 6.411419 10.997646 # O_EP3 CO2
1951 651 1 0.651200 3.978617 7.417419 35.476646 # C_EP1 CO2
1952 651 2 -0.325600 4.591617 8.295420 35.923645 # O_EP2 CO2
1953 651 3 -0.325600 3.366616 6.539419 35.029644 # O_EP3 CO2
1954 652 1 0.651200 9.629617 23.220421 35.090645 # C_EP1 CO2
1955 652 2 -0.325600 8.860617 24.021420 34.756645 # O_EP2 CO2
1956 652 3 -0.325600 10.399617 22.419418 35.425648 # O_EP3 CO2
1957 653 1 0.651200 26.599617 14.254419 37.078644 # C_EP1 CO2
1958 653 2 -0.325600 25.613615 14.107419 37.672646 # O_EP2 CO2
1959 653 3 -0.325600 27.584618 14.401419 36.484646 # O_EP3 CO2
1960 654 1 0.651200 31.723616 36.843418 15.118646 # C_EP1 CO2
1961 654 2 -0.325600 31.685617 37.416420 14.110646 # O_EP2 CO2
1962 654 3 -0.325600 31.762617 36.271420 16.126646 # O_EP3 CO2
1963 655 1 0.651200 27.414618 2.087420 14.424646 # C_EP1 CO2
1964 655 2 -0.325600 27.759617 2.225420 15.522646 # O_EP2 CO2
1965 655 3 -0.325600 27.069616 1.949419 13.325645 # O_EP3 CO2
1966 656 1 0.651200 9.772616 35.885422 15.968646 # C_EP1 CO2
1967 656 2 -0.325600 10.378617 36.847420 16.198647 # O_EP2 CO2
1968 656 3 -0.325600 9.166616 34.923420 15.738646 # O_EP3 CO2
1969 657 1 0.651200 14.027617 32.655418 22.322645 # C_EP1 CO2
1970 657 2 -0.325600 13.782617 31.929419 21.451645 # O_EP2 CO2
1971 657 3 -0.325600 14.271617 33.380421 23.194647 # O_EP3 CO2
1972 658 1 0.651200 35.196617 2.873420 10.789646 # C_EP1 CO2
1973 658 2 -0.325600 34.175613 2.687419 10.269646 # O_EP2 CO2
1974 658 3 -0.325600 36.216618 3.060420 11.308646 # O_EP3 CO2
1975 659 1 0.651200 34.513618 23.837418 14.739646 # C_EP1 CO2
1976 659 2 -0.325600 34.973618 24.848421 15.074646 # O_EP2 CO2
1977 659 3 -0.325600 34.052616 22.826420 14.404646 # O_EP3 CO2
1978 660 1 0.651200 2.620616 29.175419 11.720646 # C_EP1 CO2
1979 660 2 -0.325600 3.490616 29.444420 12.440645 # O_EP2 CO2
1980 660 3 -0.325600 1.750616 28.907417 11.001646 # O_EP3 CO2
1981 661 1 0.651200 10.906616 38.378418 28.082645 # C_EP1 CO2
1982 661 2 -0.325600 9.906616 37.915421 27.720646 # O_EP2 CO2
1983 661 3 -0.325600 11.905617 38.841419 28.445646 # O_EP3 CO2
1984 662 1 0.651200 30.020617 22.779419 22.331646 # C_EP1 CO2
1985 662 2 -0.325600 29.540617 21.773418 22.652645 # O_EP2 CO2
1986 662 3 -0.325600 30.501616 23.785419 22.010647 # O_EP3 CO2
1987 663 1 0.651200 5.034616 17.483419 33.172646 # C_EP1 CO2
1988 663 2 -0.325600 4.579617 17.520420 34.239647 # O_EP2 CO2
1989 663 3 -0.325600 5.490617 17.446419 32.106644 # O_EP3 CO2
1990 664 1 0.651200 17.506617 31.423418 29.462645 # C_EP1 CO2
1991 664 2 -0.325600 17.564617 31.482420 30.619644 # O_EP2 CO2
1992 664 3 -0.325600 17.448616 31.364420 28.305645 # O_EP3 CO2
1993 665 1 0.651200 21.958616 26.123419 24.775646 # C_EP1 CO2
1994 665 2 -0.325600 21.265617 26.135418 25.705645 # O_EP2 CO2
1995 665 3 -0.325600 22.651617 26.111420 23.844645 # O_EP3 CO2
1996 666 1 0.651200 15.651617 23.775421 29.444647 # C_EP1 CO2
1997 666 2 -0.325600 16.013617 23.369419 30.468645 # O_EP2 CO2
1998 666 3 -0.325600 15.289617 24.182419 28.420647 # O_EP3 CO2
1999 667 1 0.651200 1.926616 2.834419 16.518646 # C_EP1 CO2
2000 667 2 -0.325600 0.846617 2.608419 16.160645 # O_EP2 CO2
2001 667 3 -0.325600 3.006617 3.061419 16.877647 # O_EP3 CO2
2002 668 1 0.651200 6.869617 13.690419 1.659646 # C_EP1 CO2
2003 668 2 -0.325600 6.938617 14.301419 2.642646 # O_EP2 CO2
2004 668 3 -0.325600 6.800616 13.079419 0.675646 # O_EP3 CO2
2005 669 1 0.651200 35.204617 19.029419 5.511646 # C_EP1 CO2
2006 669 2 -0.325600 35.413616 19.099419 4.372646 # O_EP2 CO2
2007 669 3 -0.325600 34.995617 18.959419 6.650646 # O_EP3 CO2
2008 670 1 0.651200 33.883617 29.798420 35.522648 # C_EP1 CO2
2009 670 2 -0.325600 34.217617 28.768421 35.940647 # O_EP2 CO2
2010 670 3 -0.325600 33.550613 30.827419 35.105644 # O_EP3 CO2
2011 671 1 0.651200 9.855616 29.349421 35.494648 # C_EP1 CO2
2012 671 2 -0.325600 8.937616 29.662418 36.130646 # O_EP2 CO2
2013 671 3 -0.325600 10.774616 29.036419 34.859646 # O_EP3 CO2
2014 672 1 0.651200 4.820616 8.377419 10.258646 # C_EP1 CO2
2015 672 2 -0.325600 5.209617 7.644420 9.448647 # O_EP2 CO2
2016 672 3 -0.325600 4.431616 9.110419 11.069646 # O_EP3 CO2
2017 673 1 0.651200 30.513615 7.192419 6.128646 # C_EP1 CO2
2018 673 2 -0.325600 29.469616 7.028419 6.607646 # O_EP2 CO2
2019 673 3 -0.325600 31.557617 7.357420 5.650646 # O_EP3 CO2
2020 674 1 0.651200 31.158617 8.237420 15.745646 # C_EP1 CO2
2021 674 2 -0.325600 31.275616 8.098419 14.599647 # O_EP2 CO2
2022 674 3 -0.325600 31.042616 8.377419 16.891647 # O_EP3 CO2
2023 675 1 0.651200 31.111618 37.715420 23.938646 # C_EP1 CO2
2024 675 2 -0.325600 31.606617 38.139420 22.978647 # O_EP2 CO2
2025 675 3 -0.325600 30.616617 37.290421 24.897648 # O_EP3 CO2
2026 676 1 0.651200 33.646618 23.254417 10.996646 # C_EP1 CO2
2027 676 2 -0.325600 33.668617 23.198418 12.155646 # O_EP2 CO2
2028 676 3 -0.325600 33.625618 23.311420 9.838646 # O_EP3 CO2
2029 677 1 0.651200 24.872616 3.043419 9.083646 # C_EP1 CO2
2030 677 2 -0.325600 24.427616 2.179420 9.717646 # O_EP2 CO2
2031 677 3 -0.325600 25.316618 3.906420 8.448647 # O_EP3 CO2
2032 678 1 0.651200 6.514616 33.259422 19.548645 # C_EP1 CO2
2033 678 2 -0.325600 6.843616 32.165421 19.747646 # O_EP2 CO2
2034 678 3 -0.325600 6.185616 34.354420 19.350645 # O_EP3 CO2
2035 679 1 0.651200 38.311619 25.888420 35.247646 # C_EP1 CO2
2036 679 2 -0.325600 38.309616 26.714420 36.062645 # O_EP2 CO2
2037 679 3 -0.325600 38.313614 25.062420 34.432644 # O_EP3 CO2
2038 680 1 0.651200 24.170616 28.894421 35.478645 # C_EP1 CO2
2039 680 2 -0.325600 23.937616 29.846420 36.099648 # O_EP2 CO2
2040 680 3 -0.325600 24.403618 27.942419 34.858646 # O_EP3 CO2
2041 681 1 0.651200 38.170616 29.678419 34.998646 # C_EP1 CO2
2042 681 2 -0.325600 38.007618 30.663418 35.589645 # O_EP2 CO2
2043 681 3 -0.325600 38.332619 28.694420 34.406647 # O_EP3 CO2
2044 682 1 0.651200 37.162617 18.597420 22.701645 # C_EP1 CO2
2045 682 2 -0.325600 37.308617 18.942419 23.799646 # O_EP2 CO2
2046 682 3 -0.325600 37.015617 18.252419 21.603645 # O_EP3 CO2
2047 683 1 0.651200 15.647616 27.140419 10.367646 # C_EP1 CO2
2048 683 2 -0.325600 15.066616 27.867420 11.060646 # O_EP2 CO2
2049 683 3 -0.325600 16.228617 26.412420 9.675646 # O_EP3 CO2
2050 684 1 0.651200 1.408616 22.711420 21.280647 # C_EP1 CO2
2051 684 2 -0.325600 2.020617 23.555420 21.789646 # O_EP2 CO2
2052 684 3 -0.325600 0.796617 21.868420 20.770645 # O_EP3 CO2
2053 685 1 0.651200 26.792618 13.134420 26.471645 # C_EP1 CO2
2054 685 2 -0.325600 26.975616 13.942419 25.660646 # O_EP2 CO2
2055 685 3 -0.325600 26.609615 12.326420 27.283648 # O_EP3 CO2
2056 686 1 0.651200 28.690617 37.995419 15.534647 # C_EP1 CO2
2057 686 2 -0.325600 27.985615 37.148418 15.172646 # O_EP2 CO2
2058 686 3 -0.325600 29.395617 38.842422 15.896646 # O_EP3 CO2
2059 687 1 0.651200 34.344616 21.652420 7.329646 # C_EP1 CO2
2060 687 2 -0.325600 35.376617 21.667419 6.800646 # O_EP2 CO2
2061 687 3 -0.325600 33.312614 21.637419 7.858646 # O_EP3 CO2
2062 688 1 0.651200 11.581616 13.556419 13.921646 # C_EP1 CO2
2063 688 2 -0.325600 12.372617 14.394419 13.786646 # O_EP2 CO2
2064 688 3 -0.325600 10.790616 12.719419 14.055645 # O_EP3 CO2
2065 689 1 0.651200 32.749619 5.493419 28.727646 # C_EP1 CO2
2066 689 2 -0.325600 32.054619 6.012420 29.498646 # O_EP2 CO2
2067 689 3 -0.325600 33.443615 4.974420 27.956646 # O_EP3 CO2
2068 690 1 0.651200 7.458616 32.652420 34.446648 # C_EP1 CO2
2069 690 2 -0.325600 8.587617 32.914421 34.405647 # O_EP2 CO2
2070 690 3 -0.325600 6.329617 32.390419 34.488647 # O_EP3 CO2
2071 691 1 0.651200 37.480618 32.492416 30.515648 # C_EP1 CO2
2072 691 2 -0.325600 37.324615 32.193420 31.625645 # O_EP2 CO2
2073 691 3 -0.325600 37.635616 32.791420 29.405647 # O_EP3 CO2
2074 692 1 0.651200 21.398617 36.460419 36.024647 # C_EP1 CO2
2075 692 2 -0.325600 21.589615 36.389420 37.166645 # O_EP2 CO2
2076 692 3 -0.325600 21.206617 36.531418 34.882645 # O_EP3 CO2
2077 693 1 0.651200 14.099617 12.482419 25.006647 # C_EP1 CO2
2078 693 2 -0.325600 13.114616 12.481419 24.394646 # O_EP2 CO2
2079 693 3 -0.325600 15.085616 12.482419 25.618647 # O_EP3 CO2
2080 694 1 0.651200 31.623615 4.697419 35.716644 # C_EP1 CO2
2081 694 2 -0.325600 30.512617 4.388419 35.839645 # O_EP2 CO2
2082 694 3 -0.325600 32.734615 5.006419 35.592648 # O_EP3 CO2
2083 695 1 0.651200 15.996617 21.114418 26.587646 # C_EP1 CO2
2084 695 2 -0.325600 14.945617 21.279419 27.048645 # O_EP2 CO2
2085 695 3 -0.325600 17.047617 20.950420 26.125645 # O_EP3 CO2
2086 696 1 0.651200 14.019617 9.336420 25.752647 # C_EP1 CO2
2087 696 2 -0.325600 14.281616 9.382420 24.622646 # O_EP2 CO2
2088 696 3 -0.325600 13.757616 9.291419 26.881647 # O_EP3 CO2
2089 697 1 0.651200 9.177616 38.000420 23.338646 # C_EP1 CO2
2090 697 2 -0.325600 9.161616 38.789421 24.188644 # O_EP2 CO2
2091 697 3 -0.325600 9.194616 37.211422 22.488647 # O_EP3 CO2
2092 698 1 0.651200 13.740617 5.603419 3.048646 # C_EP1 CO2
2093 698 2 -0.325600 14.092617 5.439419 1.955646 # O_EP2 CO2
2094 698 3 -0.325600 13.388617 5.767419 4.141646 # O_EP3 CO2
2095 699 1 0.651200 2.044617 17.530420 33.426647 # C_EP1 CO2
2096 699 2 -0.325600 2.341616 17.115419 34.468647 # O_EP2 CO2
2097 699 3 -0.325600 1.747617 17.945419 32.384647 # O_EP3 CO2
2098 700 1 0.651200 3.742616 11.086420 35.780647 # C_EP1 CO2
2099 700 2 -0.325600 2.806616 11.434420 35.191647 # O_EP2 CO2
2100 700 3 -0.325600 4.679617 10.738420 36.370647 # O_EP3 CO2
2101 701 1 0.651200 25.720615 28.620419 7.557646 # C_EP1 CO2
2102 701 2 -0.325600 24.700615 28.833420 8.066646 # O_EP2 CO2
2103 701 3 -0.325600 26.740616 28.407419 7.048646 # O_EP3 CO2
2104 702 1 0.651200 29.726618 28.865417 10.955647 # C_EP1 CO2
2105 702 2 -0.325600 29.627617 27.979420 11.697646 # O_EP2 CO2
2106 702 3 -0.325600 29.826618 29.750420 10.212646 # O_EP3 CO2
2107 703 1 0.651200 22.833616 24.525417 28.320646 # C_EP1 CO2
2108 703 2 -0.325600 22.267616 23.963421 27.478645 # O_EP2 CO2
2109 703 3 -0.325600 23.399618 25.086420 29.163647 # O_EP3 CO2
2110 704 1 0.651200 32.120617 25.711420 26.327646 # C_EP1 CO2
2111 704 2 -0.325600 32.273617 25.699421 25.177647 # O_EP2 CO2
2112 704 3 -0.325600 31.967617 25.723419 27.477646 # O_EP3 CO2
2113 705 1 0.651200 31.428616 33.296421 13.280645 # C_EP1 CO2
2114 705 2 -0.325600 30.380615 33.795418 13.282646 # O_EP2 CO2
2115 705 3 -0.325600 32.475616 32.798420 13.278646 # O_EP3 CO2
2116 706 1 0.651200 32.071617 8.546419 27.161646 # C_EP1 CO2
2117 706 2 -0.325600 31.790617 8.319420 28.264647 # O_EP2 CO2
2118 706 3 -0.325600 32.351616 8.773419 26.059647 # O_EP3 CO2
2119 707 1 0.651200 15.224617 9.267420 11.681646 # C_EP1 CO2
2120 707 2 -0.325600 14.447617 9.313419 12.542646 # O_EP2 CO2
2121 707 3 -0.325600 16.001617 9.221419 10.821647 # O_EP3 CO2
2122 708 1 0.651200 3.443617 7.605419 37.783646 # C_EP1 CO2
2123 708 2 -0.325600 3.654616 8.634419 38.276646 # O_EP2 CO2
2124 708 3 -0.325600 3.231616 6.577420 37.291645 # O_EP3 CO2
2125 709 1 0.651200 30.390615 18.231419 22.340645 # C_EP1 CO2
2126 709 2 -0.325600 29.357616 18.414419 22.835646 # O_EP2 CO2
2127 709 3 -0.325600 31.423616 18.048420 21.845646 # O_EP3 CO2
2128 710 1 0.651200 34.458614 31.505421 23.985645 # C_EP1 CO2
2129 710 2 -0.325600 33.796616 31.728420 24.911648 # O_EP2 CO2
2130 710 3 -0.325600 35.121616 31.283419 23.059647 # O_EP3 CO2
2131 711 1 0.651200 1.037616 6.337419 23.750647 # C_EP1 CO2
2132 711 2 -0.325600 1.347616 6.662419 22.680645 # O_EP2 CO2
2133 711 3 -0.325600 0.727616 6.011419 24.819645 # O_EP3 CO2
2134 712 1 0.651200 20.019617 10.306419 24.617645 # C_EP1 CO2
2135 712 2 -0.325600 19.879618 9.853419 25.676647 # O_EP2 CO2
2136 712 3 -0.325600 20.159616 10.758419 23.558645 # O_EP3 CO2
2137 713 1 0.651200 17.504618 7.437419 24.045647 # C_EP1 CO2
2138 713 2 -0.325600 17.148617 7.447419 22.941647 # O_EP2 CO2
2139 713 3 -0.325600 17.861616 7.426419 25.148647 # O_EP3 CO2
2140 714 1 0.651200 27.539616 21.108419 30.754644 # C_EP1 CO2
2141 714 2 -0.325600 28.193617 20.176420 30.532646 # O_EP2 CO2
2142 714 3 -0.325600 26.886616 22.041418 30.976646 # O_EP3 CO2
2143 715 1 0.651200 5.717617 27.547419 10.768646 # C_EP1 CO2
2144 715 2 -0.325600 4.936616 28.207418 11.315646 # O_EP2 CO2
2145 715 3 -0.325600 6.498616 26.887419 10.220646 # O_EP3 CO2
2146 716 1 0.651200 6.991616 9.751419 18.426645 # C_EP1 CO2
2147 716 2 -0.325600 7.866616 8.990419 18.383646 # O_EP2 CO2
2148 716 3 -0.325600 6.117616 10.513419 18.470646 # O_EP3 CO2
2149 717 1 0.651200 32.426617 17.639420 29.260645 # C_EP1 CO2
2150 717 2 -0.325600 32.490616 16.574419 28.805647 # O_EP2 CO2
2151 717 3 -0.325600 32.361618 18.704418 29.715645 # O_EP3 CO2
2152 718 1 0.651200 6.708617 6.746420 27.126646 # C_EP1 CO2
2153 718 2 -0.325600 7.260616 6.876419 28.138647 # O_EP2 CO2
2154 718 3 -0.325600 6.156616 6.615419 26.114645 # O_EP3 CO2
2155 719 1 0.651200 3.105617 34.516418 36.447647 # C_EP1 CO2
2156 719 2 -0.325600 3.717617 34.525417 35.461647 # O_EP2 CO2
2157 719 3 -0.325600 2.493617 34.507420 37.432648 # O_EP3 CO2
2158 720 1 0.651200 32.731617 19.618420 17.814646 # C_EP1 CO2
2159 720 2 -0.325600 32.733616 19.723419 18.969646 # O_EP2 CO2
2160 720 3 -0.325600 32.729614 19.513420 16.659645 # O_EP3 CO2
2161 721 1 0.651200 3.115616 6.772419 32.606647 # C_EP1 CO2
2162 721 2 -0.325600 2.216617 7.232419 33.176647 # O_EP2 CO2
2163 721 3 -0.325600 4.014616 6.311419 32.036644 # O_EP3 CO2
2164 722 1 0.651200 33.479618 26.717419 36.578644 # C_EP1 CO2
2165 722 2 -0.325600 33.332619 26.833420 37.723648 # O_EP2 CO2
2166 722 3 -0.325600 33.626617 26.601419 35.433647 # O_EP3 CO2
2167 723 1 0.651200 33.667618 16.484419 5.368646 # C_EP1 CO2
2168 723 2 -0.325600 33.284615 16.810419 4.322646 # O_EP2 CO2
2169 723 3 -0.325600 34.050617 16.159420 6.413646 # O_EP3 CO2
2170 724 1 0.651200 29.874615 2.453419 3.892646 # C_EP1 CO2
2171 724 2 -0.325600 28.806618 2.860420 3.695646 # O_EP2 CO2
2172 724 3 -0.325600 30.942616 2.046419 4.090646 # O_EP3 CO2
2173 725 1 0.651200 29.180618 16.375420 21.148645 # C_EP1 CO2
2174 725 2 -0.325600 30.133617 16.120419 21.758648 # O_EP2 CO2
2175 725 3 -0.325600 28.227615 16.630419 20.538647 # O_EP3 CO2
2176 726 1 0.651200 18.567617 6.139420 13.123646 # C_EP1 CO2
2177 726 2 -0.325600 19.653616 6.253419 12.733645 # O_EP2 CO2
2178 726 3 -0.325600 17.480618 6.024420 13.514647 # O_EP3 CO2
2179 727 1 0.651200 17.451616 7.792419 30.500645 # C_EP1 CO2
2180 727 2 -0.325600 18.537617 7.827420 30.906647 # O_EP2 CO2
2181 727 3 -0.325600 16.366617 7.757420 30.093647 # O_EP3 CO2
2182 728 1 0.651200 3.835616 27.257420 13.517646 # C_EP1 CO2
2183 728 2 -0.325600 2.987616 26.486418 13.335647 # O_EP2 CO2
2184 728 3 -0.325600 4.682617 28.028419 13.699646 # O_EP3 CO2
2185 729 1 0.651200 18.063618 23.166420 32.931644 # C_EP1 CO2
2186 729 2 -0.325600 18.703617 22.343418 33.441647 # O_EP2 CO2
2187 729 3 -0.325600 17.424618 23.988419 32.422646 # O_EP3 CO2
2188 730 1 0.651200 11.403617 12.726419 5.370646 # C_EP1 CO2
2189 730 2 -0.325600 10.883616 12.021420 6.131646 # O_EP2 CO2
2190 730 3 -0.325600 11.923616 13.431419 4.609646 # O_EP3 CO2
2191 731 1 0.651200 6.320617 21.442421 8.562646 # C_EP1 CO2
2192 731 2 -0.325600 5.921617 21.165419 9.616646 # O_EP2 CO2
2193 731 3 -0.325600 6.718616 21.719419 7.509646 # O_EP3 CO2
2194 732 1 0.651200 23.787617 18.299419 35.826645 # C_EP1 CO2
2195 732 2 -0.325600 23.834618 18.004419 34.705647 # O_EP2 CO2
2196 732 3 -0.325600 23.741617 18.594419 36.947647 # O_EP3 CO2
2197 733 1 0.651200 17.794617 5.659419 26.513645 # C_EP1 CO2
2198 733 2 -0.325600 16.816616 5.605419 25.891645 # O_EP2 CO2
2199 733 3 -0.325600 18.772617 5.714419 27.135647 # O_EP3 CO2
2200 734 1 0.651200 30.759617 23.108421 31.857645 # C_EP1 CO2
2201 734 2 -0.325600 30.729616 23.752420 32.821648 # O_EP2 CO2
2202 734 3 -0.325600 30.789616 22.463419 30.893646 # O_EP3 CO2
2203 735 1 0.651200 27.441616 30.784418 36.048645 # C_EP1 CO2
2204 735 2 -0.325600 27.445618 30.786419 34.888645 # O_EP2 CO2
2205 735 3 -0.325600 27.436617 30.782417 37.208645 # O_EP3 CO2
2206 736 1 0.651200 16.479616 30.927420 23.881645 # C_EP1 CO2
2207 736 2 -0.325600 15.492617 31.451418 24.192646 # O_EP2 CO2
2208 736 3 -0.325600 17.466618 30.403419 23.571646 # O_EP3 CO2
2209 737 1 0.651200 5.587616 3.582419 27.586647 # C_EP1 CO2
2210 737 2 -0.325600 5.989616 3.134419 26.594646 # O_EP2 CO2
2211 737 3 -0.325600 5.184617 4.029419 28.577648 # O_EP3 CO2
2212 738 1 0.651200 29.948616 14.619419 24.223648 # C_EP1 CO2
2213 738 2 -0.325600 30.996616 14.858419 23.788645 # O_EP2 CO2
2214 738 3 -0.325600 28.900616 14.379419 24.658646 # O_EP3 CO2
2215 739 1 0.651200 16.087616 18.898418 25.441647 # C_EP1 CO2
2216 739 2 -0.325600 17.231617 18.937420 25.251646 # O_EP2 CO2
2217 739 3 -0.325600 14.944616 18.859421 25.631647 # O_EP3 CO2
2218 740 1 0.651200 24.332617 13.345419 17.459646 # C_EP1 CO2
2219 740 2 -0.325600 23.857616 13.012420 18.463646 # O_EP2 CO2
2220 740 3 -0.325600 24.807617 13.679420 16.454647 # O_EP3 CO2
2221 741 1 0.651200 22.091618 15.552420 9.007646 # C_EP1 CO2
2222 741 2 -0.325600 22.158615 15.590420 10.165646 # O_EP2 CO2
2223 741 3 -0.325600 22.024616 15.513419 7.850646 # O_EP3 CO2
2224 742 1 0.651200 24.589617 31.233421 31.413647 # C_EP1 CO2
2225 742 2 -0.325600 25.479618 31.961420 31.561646 # O_EP2 CO2
2226 742 3 -0.325600 23.698616 30.504419 31.265644 # O_EP3 CO2
2227 743 1 0.651200 18.803617 4.393419 30.698645 # C_EP1 CO2
2228 743 2 -0.325600 18.995617 3.250420 30.748646 # O_EP2 CO2
2229 743 3 -0.325600 18.611618 5.536419 30.648647 # O_EP3 CO2
2230 744 1 0.651200 37.575615 29.318419 14.867645 # C_EP1 CO2
2231 744 2 -0.325600 37.341618 29.962421 13.931646 # O_EP2 CO2
2232 744 3 -0.325600 37.809616 28.674419 15.803646 # O_EP3 CO2
2233 745 1 0.651200 20.453617 7.108419 1.974646 # C_EP1 CO2
2234 745 2 -0.325600 20.203617 7.235419 0.848646 # O_EP2 CO2
2235 745 3 -0.325600 20.703617 6.981420 3.099646 # O_EP3 CO2
2236 746 1 0.651200 8.729616 21.529419 34.008644 # C_EP1 CO2
2237 746 2 -0.325600 9.117617 21.713419 32.930645 # O_EP2 CO2
2238 746 3 -0.325600 8.341617 21.346418 35.086647 # O_EP3 CO2
2239 747 1 0.651200 19.045616 5.819420 21.341646 # C_EP1 CO2
2240 747 2 -0.325600 18.846617 6.113420 22.445644 # O_EP2 CO2
2241 747 3 -0.325600 19.243618 5.525420 20.236647 # O_EP3 CO2
2242 748 1 0.651200 29.586617 18.974421 35.433647 # C_EP1 CO2
2243 748 2 -0.325600 28.590618 19.408419 35.840645 # O_EP2 CO2
2244 748 3 -0.325600 30.581617 18.540419 35.025646 # O_EP3 CO2
2245 749 1 0.651200 12.639617 20.588419 14.782646 # C_EP1 CO2
2246 749 2 -0.325600 11.599617 20.100420 14.626646 # O_EP2 CO2
2247 749 3 -0.325600 13.680616 21.077419 14.939646 # O_EP3 CO2
2248 750 1 0.651200 6.683617 28.839418 32.062645 # C_EP1 CO2
2249 750 2 -0.325600 7.287617 29.156420 33.000645 # O_EP2 CO2
2250 750 3 -0.325600 6.078616 28.521420 31.124647 # O_EP3 CO2
2251 751 1 0.651200 23.580616 28.981419 16.530645 # C_EP1 CO2
2252 751 2 -0.325600 24.736616 28.888418 16.549646 # O_EP2 CO2
2253 751 3 -0.325600 22.424618 29.075420 16.511646 # O_EP3 CO2
2254 752 1 0.651200 37.947617 27.977419 11.898646 # C_EP1 CO2
2255 752 2 -0.325600 37.566616 27.975418 12.994646 # O_EP2 CO2
2256 752 3 -0.325600 38.327618 27.979420 10.802646 # O_EP3 CO2
2257 753 1 0.651200 19.483616 24.382420 19.663647 # C_EP1 CO2
2258 753 2 -0.325600 19.057615 24.972420 20.567646 # O_EP2 CO2
2259 753 3 -0.325600 19.910618 23.792419 18.760647 # O_EP3 CO2
2260 754 1 0.651200 33.739616 15.547420 15.701646 # C_EP1 CO2
2261 754 2 -0.325600 33.465618 15.453420 16.824646 # O_EP2 CO2
2262 754 3 -0.325600 34.013618 15.640420 14.578647 # O_EP3 CO2
2263 755 1 0.651200 3.109617 15.838419 22.972645 # C_EP1 CO2
2264 755 2 -0.325600 3.436616 15.553419 21.896646 # O_EP2 CO2
2265 755 3 -0.325600 2.783617 16.124418 24.048645 # O_EP3 CO2
2266 756 1 0.651200 32.461617 38.839420 7.756646 # C_EP1 CO2
2267 756 2 -0.325600 31.407616 38.840420 7.273646 # O_EP2 CO2
2268 756 3 -0.325600 33.516617 38.839420 8.240646 # O_EP3 CO2
2269 757 1 0.651200 32.974617 16.749418 20.355646 # C_EP1 CO2
2270 757 2 -0.325600 32.981617 15.591420 20.426645 # O_EP2 CO2
2271 757 3 -0.325600 32.967617 17.907419 20.284645 # O_EP3 CO2
2272 758 1 0.651200 1.888617 30.391418 14.258646 # C_EP1 CO2
2273 758 2 -0.325600 1.047616 29.595421 14.195646 # O_EP2 CO2
2274 758 3 -0.325600 2.729616 31.188419 14.321646 # O_EP3 CO2
2275 759 1 0.651200 15.494616 36.046417 4.696646 # C_EP1 CO2
2276 759 2 -0.325600 14.860617 36.722420 5.393646 # O_EP2 CO2
2277 759 3 -0.325600 16.128616 35.370419 3.998646 # O_EP3 CO2
2278 760 1 0.651200 8.499617 11.166420 9.881645 # C_EP1 CO2
2279 760 2 -0.325600 7.798616 10.598420 10.610646 # O_EP2 CO2
2280 760 3 -0.325600 9.200617 11.734419 9.152646 # O_EP3 CO2
2281 761 1 0.651200 17.413616 1.253420 8.994646 # C_EP1 CO2
2282 761 2 -0.325600 18.387617 1.253420 8.364646 # O_EP2 CO2
2283 761 3 -0.325600 16.439617 1.253420 9.624645 # O_EP3 CO2
2284 762 1 0.651200 24.636616 14.285419 33.775646 # C_EP1 CO2
2285 762 2 -0.325600 24.567616 13.809420 34.831646 # O_EP2 CO2
2286 762 3 -0.325600 24.705618 14.760419 32.720646 # O_EP3 CO2
2287 763 1 0.651200 14.809617 29.650419 9.616646 # C_EP1 CO2
2288 763 2 -0.325600 14.315617 30.449419 10.297647 # O_EP2 CO2
2289 763 3 -0.325600 15.303617 28.851418 8.935646 # O_EP3 CO2
2290 764 1 0.651200 5.787616 7.614419 34.150646 # C_EP1 CO2
2291 764 2 -0.325600 6.422616 7.311419 35.072647 # O_EP2 CO2
2292 764 3 -0.325600 5.151616 7.918419 33.228645 # O_EP3 CO2
2293 765 1 0.651200 5.548616 36.378418 2.745646 # C_EP1 CO2
2294 765 2 -0.325600 5.935616 36.454422 1.654646 # O_EP2 CO2
2295 765 3 -0.325600 5.162616 36.302418 3.837646 # O_EP3 CO2
2296 766 1 0.651200 20.084618 3.481419 14.202646 # C_EP1 CO2
2297 766 2 -0.325600 20.723618 3.124419 15.101646 # O_EP2 CO2
2298 766 3 -0.325600 19.444616 3.837420 13.302646 # O_EP3 CO2
2299 767 1 0.651200 17.700617 14.250420 24.839647 # C_EP1 CO2
2300 767 2 -0.325600 18.399616 13.582419 25.480648 # O_EP2 CO2
2301 767 3 -0.325600 17.002617 14.919419 24.198647 # O_EP3 CO2
2302 768 1 0.651200 27.009617 27.970419 3.546646 # C_EP1 CO2
2303 768 2 -0.325600 27.996616 28.070419 2.945646 # O_EP2 CO2
2304 768 3 -0.325600 26.022615 27.870419 4.148646 # O_EP3 CO2
2305 769 1 0.651200 36.229618 26.067419 32.593647 # C_EP1 CO2
2306 769 2 -0.325600 35.406616 26.558418 33.246647 # O_EP2 CO2
2307 769 3 -0.325600 37.052616 25.576420 31.940647 # O_EP3 CO2
2308 770 1 0.651200 30.082617 11.134419 5.632646 # C_EP1 CO2
2309 770 2 -0.325600 30.729616 12.092420 5.725646 # O_EP2 CO2
2310 770 3 -0.325600 29.434616 10.176419 5.538646 # O_EP3 CO2
2311 771 1 0.651200 6.061616 24.253418 16.634645 # C_EP1 CO2
2312 771 2 -0.325600 5.717617 24.105419 17.732647 # O_EP2 CO2
2313 771 3 -0.325600 6.405616 24.400421 15.536646 # O_EP3 CO2
2314 772 1 0.651200 35.632618 30.489418 7.232646 # C_EP1 CO2
2315 772 2 -0.325600 36.201614 30.324419 6.235646 # O_EP2 CO2
2316 772 3 -0.325600 35.063618 30.655420 8.229646 # O_EP3 CO2
2317 773 1 0.651200 28.179617 23.176420 14.923647 # C_EP1 CO2
2318 773 2 -0.325600 28.690617 22.849419 13.934646 # O_EP2 CO2
2319 773 3 -0.325600 27.668617 23.502419 15.912646 # O_EP3 CO2
2320 774 1 0.651200 10.232616 33.887421 2.459646 # C_EP1 CO2
2321 774 2 -0.325600 9.879617 33.738419 1.365646 # O_EP2 CO2
2322 774 3 -0.325600 10.585617 34.036419 3.554646 # O_EP3 CO2
2323 775 1 0.651200 31.010616 30.708420 34.174644 # C_EP1 CO2
2324 775 2 -0.325600 31.043615 31.607420 34.906647 # O_EP2 CO2
2325 775 3 -0.325600 30.977615 29.809420 33.442646 # O_EP3 CO2
2326 776 1 0.651200 31.363617 34.044418 22.458647 # C_EP1 CO2
2327 776 2 -0.325600 32.352615 33.442417 22.377645 # O_EP2 CO2
2328 776 3 -0.325600 30.375616 34.646420 22.538645 # O_EP3 CO2
2329 777 1 0.651200 16.676617 21.321419 19.552647 # C_EP1 CO2
2330 777 2 -0.325600 16.706617 21.844421 18.518646 # O_EP2 CO2
2331 777 3 -0.325600 16.646616 20.797421 20.587646 # O_EP3 CO2
2332 778 1 0.651200 12.459617 4.430419 33.608646 # C_EP1 CO2
2333 778 2 -0.325600 12.762617 5.419419 34.133648 # O_EP2 CO2
2334 778 3 -0.325600 12.157617 3.441419 33.082645 # O_EP3 CO2
2335 779 1 0.651200 30.123617 12.444420 18.135647 # C_EP1 CO2
2336 779 2 -0.325600 29.048616 12.111420 18.418646 # O_EP2 CO2
2337 779 3 -0.325600 31.198616 12.776419 17.852646 # O_EP3 CO2
2338 780 1 0.651200 22.032616 31.302418 17.241646 # C_EP1 CO2
2339 780 2 -0.325600 22.106617 31.286419 16.084646 # O_EP2 CO2
2340 780 3 -0.325600 21.958616 31.318419 18.399647 # O_EP3 CO2
2341 781 1 0.651200 9.334617 32.819420 5.799646 # C_EP1 CO2
2342 781 2 -0.325600 10.164616 32.184418 6.304646 # O_EP2 CO2
2343 781 3 -0.325600 8.505617 33.454422 5.295646 # O_EP3 CO2
2344 782 1 0.651200 1.871617 12.734419 19.330647 # C_EP1 CO2
2345 782 2 -0.325600 2.058617 13.829420 18.996647 # O_EP2 CO2
2346 782 3 -0.325600 1.685616 11.639420 19.663647 # O_EP3 CO2
2347 783 1 0.651200 34.652618 5.073419 19.879646 # C_EP1 CO2
2348 783 2 -0.325600 34.926617 5.109419 18.752647 # O_EP2 CO2
2349 783 3 -0.325600 34.378616 5.036420 21.005648 # O_EP3 CO2
2350 784 1 0.651200 35.620617 9.692419 18.502645 # C_EP1 CO2
2351 784 2 -0.325600 35.909618 10.345420 19.416645 # O_EP2 CO2
2352 784 3 -0.325600 35.331615 9.039419 17.588646 # O_EP3 CO2
2353 785 1 0.651200 15.862617 10.647420 30.678646 # C_EP1 CO2
2354 785 2 -0.325600 15.807617 11.680420 30.154646 # O_EP2 CO2
2355 785 3 -0.325600 15.916616 9.613420 31.202644 # O_EP3 CO2
2356 786 1 0.651200 8.416616 23.571419 15.182647 # C_EP1 CO2
2357 786 2 -0.325600 8.488616 23.308420 16.310646 # O_EP2 CO2
2358 786 3 -0.325600 8.343616 23.834419 14.055645 # O_EP3 CO2
2359 787 1 0.651200 21.327618 19.000420 5.290646 # C_EP1 CO2
2360 787 2 -0.325600 22.398617 19.251419 4.921646 # O_EP2 CO2
2361 787 3 -0.325600 20.257616 18.749420 5.660646 # O_EP3 CO2
2362 788 1 0.651200 31.386616 13.896420 12.221646 # C_EP1 CO2
2363 788 2 -0.325600 31.718616 13.979420 13.329647 # O_EP2 CO2
2364 788 3 -0.325600 31.054615 13.813419 11.113646 # O_EP3 CO2
2365 789 1 0.651200 6.891617 27.816420 13.836646 # C_EP1 CO2
2366 789 2 -0.325600 7.152617 28.184418 14.905645 # O_EP2 CO2
2367 789 3 -0.325600 6.629617 27.449419 12.767647 # O_EP3 CO2
2368 790 1 0.651200 1.277617 9.628419 25.487648 # C_EP1 CO2
2369 790 2 -0.325600 1.806617 10.658419 25.412645 # O_EP2 CO2
2370 790 3 -0.325600 0.749617 8.598419 25.562647 # O_EP3 CO2
2371 791 1 0.651200 28.196617 18.498419 33.126644 # C_EP1 CO2
2372 791 2 -0.325600 28.697617 17.606419 33.673645 # O_EP2 CO2
2373 791 3 -0.325600 27.695618 19.391420 32.580647 # O_EP3 CO2
2374 792 1 0.651200 18.738617 21.401421 30.784645 # C_EP1 CO2
2375 792 2 -0.325600 17.757616 21.858421 31.202644 # O_EP2 CO2
2376 792 3 -0.325600 19.718616 20.943420 30.366646 # O_EP3 CO2
2377 793 1 0.651200 26.168615 32.870419 27.898645 # C_EP1 CO2
2378 793 2 -0.325600 26.294617 31.718418 27.954645 # O_EP2 CO2
2379 793 3 -0.325600 26.041618 34.022419 27.842646 # O_EP3 CO2
2380 794 1 0.651200 14.110617 18.721420 31.226646 # C_EP1 CO2
2381 794 2 -0.325600 14.609617 18.292419 30.271646 # O_EP2 CO2
2382 794 3 -0.325600 13.611617 19.149420 32.181648 # O_EP3 CO2
2383 795 1 0.651200 24.772615 36.064419 11.794645 # C_EP1 CO2
2384 795 2 -0.325600 24.439617 35.317417 10.972647 # O_EP2 CO2
2385 795 3 -0.325600 25.105618 36.811417 12.617646 # O_EP3 CO2
2386 796 1 0.651200 36.896618 13.508420 10.055646 # C_EP1 CO2
2387 796 2 -0.325600 37.849617 13.211420 9.464646 # O_EP2 CO2
2388 796 3 -0.325600 35.943615 13.804419 10.645646 # O_EP3 CO2
2389 797 1 0.651200 1.536617 33.304420 22.391645 # C_EP1 CO2
2390 797 2 -0.325600 1.657616 33.233418 23.543646 # O_EP2 CO2
2391 797 3 -0.325600 1.415617 33.376419 21.240646 # O_EP3 CO2
2392 798 1 0.651200 34.486614 12.701420 19.426647 # C_EP1 CO2
2393 798 2 -0.325600 33.420616 12.880420 19.847645 # O_EP2 CO2
2394 798 3 -0.325600 35.552616 12.521420 19.006645 # O_EP3 CO2
2395 799 1 0.651200 16.755617 6.156420 19.471647 # C_EP1 CO2
2396 799 2 -0.325600 16.838615 6.246419 20.625647 # O_EP2 CO2
2397 799 3 -0.325600 16.671618 6.066420 18.318645 # O_EP3 CO2
2398 800 1 0.651200 37.983616 15.464419 27.944645 # C_EP1 CO2
2399 800 2 -0.325600 37.712616 16.568420 27.715645 # O_EP2 CO2
2400 800 3 -0.325600 38.254616 14.359419 28.172646 # O_EP3 CO2
2401 801 1 0.651200 36.392616 23.093418 13.378647 # C_EP1 CO2
2402 801 2 -0.325600 36.227615 23.799419 12.473646 # O_EP2 CO2
2403 801 3 -0.325600 36.557617 22.386419 14.283647 # O_EP3 CO2
2404 802 1 0.651200 5.710617 35.128418 23.632645 # C_EP1 CO2
2405 802 2 -0.325600 6.149616 35.732418 24.520645 # O_EP2 CO2
2406 802 3 -0.325600 5.271616 34.524418 22.744646 # O_EP3 CO2
2407 803 1 0.651200 14.218616 18.142418 3.458646 # C_EP1 CO2
2408 803 2 -0.325600 13.944616 18.388420 2.358646 # O_EP2 CO2
2409 803 3 -0.325600 14.492617 17.896420 4.558646 # O_EP3 CO2
2410 804 1 0.651200 34.367615 14.492420 26.111645 # C_EP1 CO2
2411 804 2 -0.325600 33.220615 14.483419 25.941647 # O_EP2 CO2
2412 804 3 -0.325600 35.514618 14.501419 26.281645 # O_EP3 CO2
2413 805 1 0.651200 8.431617 2.439420 22.693645 # C_EP1 CO2
2414 805 2 -0.325600 8.610617 3.581419 22.593647 # O_EP2 CO2
2415 805 3 -0.325600 8.252617 1.298419 22.793646 # O_EP3 CO2
2416 806 1 0.651200 27.615616 17.703421 26.432646 # C_EP1 CO2
2417 806 2 -0.325600 27.521618 17.752420 27.588646 # O_EP2 CO2
2418 806 3 -0.325600 27.709618 17.654419 25.277645 # O_EP3 CO2
2419 807 1 0.651200 33.323616 5.168419 33.041645 # C_EP1 CO2
2420 807 2 -0.325600 34.184616 5.923419 32.857647 # O_EP2 CO2
2421 807 3 -0.325600 32.462616 4.413419 33.226646 # O_EP3 CO2
2422 808 1 0.651200 36.100616 7.795420 12.052646 # C_EP1 CO2
2423 808 2 -0.325600 36.521614 7.367420 13.045646 # O_EP2 CO2
2424 808 3 -0.325600 35.678616 8.222420 11.059647 # O_EP3 CO2
2425 809 1 0.651200 35.891617 10.814420 33.767647 # C_EP1 CO2
2426 809 2 -0.325600 35.232616 10.631419 32.830647 # O_EP2 CO2
2427 809 3 -0.325600 36.551617 10.997419 34.703644 # O_EP3 CO2
2428 810 1 0.651200 8.563616 18.671419 5.616646 # C_EP1 CO2
2429 810 2 -0.325600 8.867617 18.658421 4.497646 # O_EP2 CO2
2430 810 3 -0.325600 8.258616 18.684420 6.736646 # O_EP3 CO2
2431 811 1 0.651200 37.151615 3.211420 16.281647 # C_EP1 CO2
2432 811 2 -0.325600 36.915619 3.251419 17.416647 # O_EP2 CO2
2433 811 3 -0.325600 37.387615 3.170419 15.146646 # O_EP3 CO2
2434 812 1 0.651200 16.645617 9.679420 26.613646 # C_EP1 CO2
2435 812 2 -0.325600 16.673616 9.249419 25.536648 # O_EP2 CO2
2436 812 3 -0.325600 16.617617 10.108419 27.691647 # O_EP3 CO2
2437 813 1 0.651200 8.732616 3.210419 28.230646 # C_EP1 CO2
2438 813 2 -0.325600 9.839617 3.551419 28.176647 # O_EP2 CO2
2439 813 3 -0.325600 7.624617 2.869420 28.285646 # O_EP3 CO2
2440 814 1 0.651200 2.311616 21.574419 35.610649 # C_EP1 CO2
2441 814 2 -0.325600 2.614616 22.692421 35.543648 # O_EP2 CO2
2442 814 3 -0.325600 2.009616 20.456419 35.676647 # O_EP3 CO2
2443 815 1 0.651200 16.898617 20.507420 9.956646 # C_EP1 CO2
2444 815 2 -0.325600 15.769616 20.617418 10.197645 # O_EP2 CO2
2445 815 3 -0.325600 18.027617 20.397419 9.715647 # O_EP3 CO2
2446 816 1 0.651200 13.503617 6.942420 18.987646 # C_EP1 CO2
2447 816 2 -0.325600 13.387617 7.674419 19.879646 # O_EP2 CO2
2448 816 3 -0.325600 13.619616 6.210420 18.094646 # O_EP3 CO2
2449 817 1 0.651200 26.183617 16.578419 34.059647 # C_EP1 CO2
2450 817 2 -0.325600 27.095615 16.341419 34.735645 # O_EP2 CO2
2451 817 3 -0.325600 25.271616 16.814419 33.382648 # O_EP3 CO2
2452 818 1 0.651200 30.981617 26.662418 31.844646 # C_EP1 CO2
2453 818 2 -0.325600 31.454617 26.432419 32.878647 # O_EP2 CO2
2454 818 3 -0.325600 30.508615 26.892418 30.810646 # O_EP3 CO2
2455 819 1 0.651200 37.189617 36.893421 20.784645 # C_EP1 CO2
2456 819 2 -0.325600 36.051617 36.965420 20.998646 # O_EP2 CO2
2457 819 3 -0.325600 38.327618 36.821419 20.570644 # O_EP3 CO2
2458 820 1 0.651200 18.816616 13.574419 15.455647 # C_EP1 CO2
2459 820 2 -0.325600 17.895617 12.925420 15.179646 # O_EP2 CO2
2460 820 3 -0.325600 19.738617 14.222420 15.730646 # O_EP3 CO2
2461 821 1 0.651200 1.168617 36.877419 32.273643 # C_EP1 CO2
2462 821 2 -0.325600 1.589617 37.341419 33.249645 # O_EP2 CO2
2463 821 3 -0.325600 0.746616 36.413418 31.297646 # O_EP3 CO2
2464 822 1 0.651200 37.517616 15.160419 20.190647 # C_EP1 CO2
2465 822 2 -0.325600 37.032616 14.844419 21.195644 # O_EP2 CO2
2466 822 3 -0.325600 38.002617 15.477419 19.185646 # O_EP3 CO2
2467 823 1 0.651200 6.554617 17.162420 3.977646 # C_EP1 CO2
2468 823 2 -0.325600 6.625617 16.727419 2.904646 # O_EP2 CO2
2469 823 3 -0.325600 6.484616 17.597420 5.050646 # O_EP3 CO2
2470 824 1 0.651200 36.462616 36.057419 12.733645 # C_EP1 CO2
2471 824 2 -0.325600 36.010616 36.495419 11.758646 # O_EP2 CO2
2472 824 3 -0.325600 36.914616 35.619419 13.707646 # O_EP3 CO2
2473 825 1 0.651200 7.087616 19.112419 35.434647 # C_EP1 CO2
2474 825 2 -0.325600 7.973617 18.632420 36.009644 # O_EP2 CO2
2475 825 3 -0.325600 6.200616 19.591419 34.860645 # O_EP3 CO2
2476 826 1 0.651200 34.029617 6.896420 1.658646 # C_EP1 CO2
2477 826 2 -0.325600 34.565617 6.592419 2.641646 # O_EP2 CO2
2478 826 3 -0.325600 33.493618 7.200419 0.675646 # O_EP3 CO2
2479 827 1 0.651200 14.103617 14.145420 21.832645 # C_EP1 CO2
2480 827 2 -0.325600 13.538617 14.965420 22.428646 # O_EP2 CO2
2481 827 3 -0.325600 14.668616 13.326420 21.236647 # O_EP3 CO2
2482 828 1 0.651200 3.934617 11.816420 1.620646 # C_EP1 CO2
2483 828 2 -0.325600 4.602616 11.891420 0.675646 # O_EP2 CO2
2484 828 3 -0.325600 3.266616 11.741419 2.565646 # O_EP3 CO2
2485 829 1 0.651200 3.620616 3.779419 37.896645 # C_EP1 CO2
2486 829 2 -0.325600 4.340616 2.929420 37.574646 # O_EP2 CO2
2487 829 3 -0.325600 2.900617 4.630419 38.218647 # O_EP3 CO2
2488 830 1 0.651200 20.071617 27.596418 12.068645 # C_EP1 CO2
2489 830 2 -0.325600 20.961617 27.604420 11.324646 # O_EP2 CO2
2490 830 3 -0.325600 19.181616 27.587418 12.811646 # O_EP3 CO2
2491 831 1 0.651200 26.576616 33.467419 21.450645 # C_EP1 CO2
2492 831 2 -0.325600 27.671616 33.479420 21.067646 # O_EP2 CO2
2493 831 3 -0.325600 25.481617 33.455421 21.833647 # O_EP3 CO2
2494 832 1 0.651200 26.576616 27.772419 26.920645 # C_EP1 CO2
2495 832 2 -0.325600 26.229618 27.325420 25.907646 # O_EP2 CO2
2496 832 3 -0.325600 26.923616 28.220421 27.932646 # O_EP3 CO2
2497 833 1 0.651200 37.474617 38.100418 23.161644 # C_EP1 CO2
2498 833 2 -0.325600 38.327618 37.710419 23.844645 # O_EP2 CO2
2499 833 3 -0.325600 36.622616 38.489422 22.478645 # O_EP3 CO2
2500 834 1 0.651200 30.071617 36.715420 11.377645 # C_EP1 CO2
2501 834 2 -0.325600 29.689617 36.809422 10.286646 # O_EP2 CO2
2502 834 3 -0.325600 30.453617 36.621422 12.468645 # O_EP3 CO2
2503 835 1 0.651200 18.952616 8.276420 27.600647 # C_EP1 CO2
2504 835 2 -0.325600 18.222616 8.637420 28.427647 # O_EP2 CO2
2505 835 3 -0.325600 19.682617 7.916420 26.774645 # O_EP3 CO2
2506 836 1 0.651200 36.476616 20.538418 35.769646 # C_EP1 CO2
2507 836 2 -0.325600 35.394615 20.220421 36.039646 # O_EP2 CO2
2508 836 3 -0.325600 37.559616 20.857420 35.500645 # O_EP3 CO2
2509 837 1 0.651200 19.884617 32.895420 19.878645 # C_EP1 CO2
2510 837 2 -0.325600 19.407618 31.891420 19.547646 # O_EP2 CO2
2511 837 3 -0.325600 20.361616 33.899418 20.209646 # O_EP3 CO2
2512 838 1 0.651200 5.373616 12.265420 27.419645 # C_EP1 CO2
2513 838 2 -0.325600 5.427616 12.249420 28.578646 # O_EP2 CO2
2514 838 3 -0.325600 5.319617 12.281419 26.260645 # O_EP3 CO2
2515 839 1 0.651200 17.153616 11.947420 3.371646 # C_EP1 CO2
2516 839 2 -0.325600 16.047615 11.842419 3.036646 # O_EP2 CO2
2517 839 3 -0.325600 18.259617 12.051419 3.705646 # O_EP3 CO2
2518 840 1 0.651200 16.727617 14.492420 11.687646 # C_EP1 CO2
2519 840 2 -0.325600 16.982616 15.405418 11.018646 # O_EP2 CO2
2520 840 3 -0.325600 16.472616 13.580420 12.356646 # O_EP3 CO2
2521 841 1 0.651200 33.744617 2.702420 6.047646 # C_EP1 CO2
2522 841 2 -0.325600 34.565617 2.353419 5.306646 # O_EP2 CO2
2523 841 3 -0.325600 32.923618 3.051419 6.789646 # O_EP3 CO2
2524 842 1 0.651200 25.931616 24.241419 18.028645 # C_EP1 CO2
2525 842 2 -0.325600 25.994616 23.984421 19.157646 # O_EP2 CO2
2526 842 3 -0.325600 25.867617 24.499418 16.899647 # O_EP3 CO2
2527 843 1 0.651200 33.181618 22.088421 34.832645 # C_EP1 CO2
2528 843 2 -0.325600 33.477615 22.222420 35.946648 # O_EP2 CO2
2529 843 3 -0.325600 32.884617 21.954420 33.719646 # O_EP3 CO2
2530 844 1 0.651200 5.820617 5.974420 16.948647 # C_EP1 CO2
2531 844 2 -0.325600 6.177617 6.070419 15.848646 # O_EP2 CO2
2532 844 3 -0.325600 5.463616 5.879419 18.048647 # O_EP3 CO2
2533 845 1 0.651200 38.014618 27.394419 22.207645 # C_EP1 CO2
2534 845 2 -0.325600 37.702618 28.024418 21.285646 # O_EP2 CO2
2535 845 3 -0.325600 38.327618 26.763420 23.129646 # O_EP3 CO2
2536 846 1 0.651200 12.744617 26.658421 21.008646 # C_EP1 CO2
2537 846 2 -0.325600 12.162617 25.971420 20.277645 # O_EP2 CO2
2538 846 3 -0.325600 13.327617 27.345419 21.739645 # O_EP3 CO2
2539 847 1 0.651200 22.070618 35.713421 28.238647 # C_EP1 CO2
2540 847 2 -0.325600 21.980618 35.746418 27.082645 # O_EP2 CO2
2541 847 3 -0.325600 22.160616 35.680420 29.394646 # O_EP3 CO2
2542 848 1 0.651200 34.557617 31.683418 30.693645 # C_EP1 CO2
2543 848 2 -0.325600 34.989616 30.705418 30.242645 # O_EP2 CO2
2544 848 3 -0.325600 34.126617 32.661419 31.143646 # O_EP3 CO2
2545 849 1 0.651200 3.421617 7.450419 27.958645 # C_EP1 CO2
2546 849 2 -0.325600 3.024616 8.101419 27.084646 # O_EP2 CO2
2547 849 3 -0.325600 3.818617 6.799419 28.832645 # O_EP3 CO2
2548 850 1 0.651200 33.770615 26.044418 30.711647 # C_EP1 CO2
2549 850 2 -0.325600 32.788616 26.622419 30.496645 # O_EP2 CO2
2550 850 3 -0.325600 34.752617 25.465420 30.926647 # O_EP3 CO2
2551 851 1 0.651200 32.860619 33.739418 34.643646 # C_EP1 CO2
2552 851 2 -0.325600 32.228619 33.670418 33.673645 # O_EP2 CO2
2553 851 3 -0.325600 33.492619 33.809418 35.613647 # O_EP3 CO2
2554 852 1 0.651200 23.775616 32.516418 15.342646 # C_EP1 CO2
2555 852 2 -0.325600 23.041615 33.372417 15.616646 # O_EP2 CO2
2556 852 3 -0.325600 24.509617 31.660419 15.069646 # O_EP3 CO2
2557 853 1 0.651200 28.827618 13.568419 16.075645 # C_EP1 CO2
2558 853 2 -0.325600 28.963615 14.703419 15.879646 # O_EP2 CO2
2559 853 3 -0.325600 28.691616 12.433419 16.271646 # O_EP3 CO2
2560 854 1 0.651200 19.073616 27.162418 19.096645 # C_EP1 CO2
2561 854 2 -0.325600 19.150616 26.923420 17.964645 # O_EP2 CO2
2562 854 3 -0.325600 18.996616 27.401419 20.229647 # O_EP3 CO2
2563 855 1 0.651200 20.607616 24.385418 14.857646 # C_EP1 CO2
2564 855 2 -0.325600 20.348616 23.291418 14.570646 # O_EP2 CO2
2565 855 3 -0.325600 20.866615 25.478420 15.144646 # O_EP3 CO2
2566 856 1 0.651200 32.446617 15.358419 37.398647 # C_EP1 CO2
2567 856 2 -0.325600 32.110619 14.614420 36.574646 # O_EP2 CO2
2568 856 3 -0.325600 32.781616 16.103418 38.221645 # O_EP3 CO2
2569 857 1 0.651200 6.539617 14.493419 24.871645 # C_EP1 CO2
2570 857 2 -0.325600 6.615617 14.449420 23.714645 # O_EP2 CO2
2571 857 3 -0.325600 6.463616 14.537419 26.028645 # O_EP3 CO2
2572 858 1 0.651200 14.414617 29.754419 1.793646 # C_EP1 CO2
2573 858 2 -0.325600 14.232616 29.505421 0.675646 # O_EP2 CO2
2574 858 3 -0.325600 14.595617 30.003418 2.912646 # O_EP3 CO2
2575 859 1 0.651200 30.678616 25.351419 11.172647 # C_EP1 CO2
2576 859 2 -0.325600 31.671618 25.331419 11.772646 # O_EP2 CO2
2577 859 3 -0.325600 29.686615 25.371420 10.572645 # O_EP3 CO2
2578 860 1 0.651200 17.036617 31.781418 14.835646 # C_EP1 CO2
2579 860 2 -0.325600 16.006617 31.247421 14.843646 # O_EP2 CO2
2580 860 3 -0.325600 18.065617 32.315418 14.827646 # O_EP3 CO2
2581 861 1 0.651200 36.329617 2.664419 8.245646 # C_EP1 CO2
2582 861 2 -0.325600 36.166615 3.741419 8.644646 # O_EP2 CO2
2583 861 3 -0.325600 36.491615 1.588419 7.846646 # O_EP3 CO2
2584 862 1 0.651200 27.037617 24.358421 30.922646 # C_EP1 CO2
2585 862 2 -0.325600 27.323616 24.513418 29.809647 # O_EP2 CO2
2586 862 3 -0.325600 26.751616 24.202419 32.036644 # O_EP3 CO2
2587 863 1 0.651200 4.977617 14.841419 33.515648 # C_EP1 CO2
2588 863 2 -0.325600 5.935616 14.907419 32.864647 # O_EP2 CO2
2589 863 3 -0.325600 4.020617 14.776420 34.166645 # O_EP3 CO2
2590 864 1 0.651200 30.717617 22.546421 11.553646 # C_EP1 CO2
2591 864 2 -0.325600 31.521616 21.768419 11.247645 # O_EP2 CO2
2592 864 3 -0.325600 29.912617 23.323420 11.859646 # O_EP3 CO2
2593 865 1 0.651200 37.679619 15.332420 23.986647 # C_EP1 CO2
2594 865 2 -0.325600 37.335617 14.757420 24.933645 # O_EP2 CO2
2595 865 3 -0.325600 38.023617 15.907420 23.039646 # O_EP3 CO2
2596 866 1 0.651200 18.513617 20.082418 37.252647 # C_EP1 CO2
2597 866 2 -0.325600 18.099617 19.728420 38.276646 # O_EP2 CO2
2598 866 3 -0.325600 18.928616 20.436420 36.228645 # O_EP3 CO2
2599 867 1 0.651200 13.039617 10.208420 14.535646 # C_EP1 CO2
2600 867 2 -0.325600 13.190617 11.291419 14.922647 # O_EP2 CO2
2601 867 3 -0.325600 12.888617 9.125420 14.147646 # O_EP3 CO2
2602 868 1 0.651200 24.904615 16.135420 13.760647 # C_EP1 CO2
2603 868 2 -0.325600 24.716616 16.120419 14.905645 # O_EP2 CO2
2604 868 3 -0.325600 25.092617 16.149420 12.616646 # O_EP3 CO2
2605 869 1 0.651200 7.250617 6.524419 24.094646 # C_EP1 CO2
2606 869 2 -0.325600 8.353617 6.850420 24.243645 # O_EP2 CO2
2607 869 3 -0.325600 6.147616 6.198420 23.944645 # O_EP3 CO2
2608 870 1 0.651200 32.422615 12.782420 27.568645 # C_EP1 CO2
2609 870 2 -0.325600 33.124615 11.878419 27.757647 # O_EP2 CO2
2610 870 3 -0.325600 31.720617 13.686419 27.379646 # O_EP3 CO2
2611 871 1 0.651200 23.034615 34.103420 6.501646 # C_EP1 CO2
2612 871 2 -0.325600 23.036615 34.119419 7.660646 # O_EP2 CO2
2613 871 3 -0.325600 23.033617 34.088417 5.341646 # O_EP3 CO2
2614 872 1 0.651200 1.240616 24.291420 9.110646 # C_EP1 CO2
2615 872 2 -0.325600 1.221617 24.331419 7.951646 # O_EP2 CO2
2616 872 3 -0.325600 1.259616 24.252419 10.269646 # O_EP3 CO2
2617 873 1 0.651200 29.986618 36.133419 3.325646 # C_EP1 CO2
2618 873 2 -0.325600 29.675617 35.109421 3.772646 # O_EP2 CO2
2619 873 3 -0.325600 30.298616 37.157417 2.878646 # O_EP3 CO2
2620 874 1 0.651200 12.438617 10.181419 19.959644 # C_EP1 CO2
2621 874 2 -0.325600 12.727617 9.564420 20.899647 # O_EP2 CO2
2622 874 3 -0.325600 12.149616 10.797420 19.020645 # O_EP3 CO2
2623 875 1 0.651200 16.986616 3.420419 25.704647 # C_EP1 CO2
2624 875 2 -0.325600 18.051617 3.480420 25.249645 # O_EP2 CO2
2625 875 3 -0.325600 15.921617 3.360420 26.160645 # O_EP3 CO2
2626 876 1 0.651200 11.453617 17.013420 15.941647 # C_EP1 CO2
2627 876 2 -0.325600 12.005616 16.530420 16.839645 # O_EP2 CO2
2628 876 3 -0.325600 10.901617 17.496418 15.042646 # O_EP3 CO2
2629 877 1 0.651200 32.286613 32.185417 17.007647 # C_EP1 CO2
2630 877 2 -0.325600 32.308617 32.192417 15.847646 # O_EP2 CO2
2631 877 3 -0.325600 32.265617 32.178417 18.166645 # O_EP3 CO2
2632 878 1 0.651200 8.901616 10.162419 2.807646 # C_EP1 CO2
2633 878 2 -0.325600 9.558617 10.731420 3.576646 # O_EP2 CO2
2634 878 3 -0.325600 8.243616 9.594419 2.039646 # O_EP3 CO2
2635 879 1 0.651200 13.455616 25.650421 32.676647 # C_EP1 CO2
2636 879 2 -0.325600 13.290616 24.893419 33.538647 # O_EP2 CO2
2637 879 3 -0.325600 13.621616 26.408421 31.813644 # O_EP3 CO2
2638 880 1 0.651200 11.637616 33.965420 6.185646 # C_EP1 CO2
2639 880 2 -0.325600 11.192616 34.198421 7.231646 # O_EP2 CO2
2640 880 3 -0.325600 12.081615 33.732418 5.139646 # O_EP3 CO2
2641 881 1 0.651200 17.021616 29.354420 34.989647 # C_EP1 CO2
2642 881 2 -0.325600 17.956617 29.410419 34.305645 # O_EP2 CO2
2643 881 3 -0.325600 16.086617 29.297419 35.674644 # O_EP3 CO2
2644 882 1 0.651200 36.130615 15.573420 5.975646 # C_EP1 CO2
2645 882 2 -0.325600 36.104618 14.424419 5.819646 # O_EP2 CO2
2646 882 3 -0.325600 36.157616 16.722420 6.130646 # O_EP3 CO2
2647 883 1 0.651200 7.910616 16.390419 23.653645 # C_EP1 CO2
2648 883 2 -0.325600 8.915616 16.000420 23.225647 # O_EP2 CO2
2649 883 3 -0.325600 6.905617 16.780418 24.080647 # O_EP3 CO2
2650 884 1 0.651200 11.523617 32.875420 19.431646 # C_EP1 CO2
2651 884 2 -0.325600 11.307616 33.035419 18.303646 # O_EP2 CO2
2652 884 3 -0.325600 11.739616 32.716419 20.560646 # O_EP3 CO2
2653 885 1 0.651200 3.922616 26.116419 18.416645 # C_EP1 CO2
2654 885 2 -0.325600 4.581616 26.578419 17.580647 # O_EP2 CO2
2655 885 3 -0.325600 3.263617 25.654419 19.251646 # O_EP3 CO2
2656 886 1 0.651200 36.833618 5.132420 13.106647 # C_EP1 CO2
2657 886 2 -0.325600 36.745617 5.123419 11.949646 # O_EP2 CO2
2658 886 3 -0.325600 36.921616 5.141419 14.263647 # O_EP3 CO2
2659 887 1 0.651200 5.407617 6.114420 30.203646 # C_EP1 CO2
2660 887 2 -0.325600 5.818617 7.155419 29.901646 # O_EP2 CO2
2661 887 3 -0.325600 4.996616 5.072420 30.506647 # O_EP3 CO2
2662 888 1 0.651200 6.982617 29.260418 24.934647 # C_EP1 CO2
2663 888 2 -0.325600 6.887617 29.240419 26.090645 # O_EP2 CO2
2664 888 3 -0.325600 7.077617 29.280418 23.778646 # O_EP3 CO2
2665 889 1 0.651200 15.152617 15.728420 25.210646 # C_EP1 CO2
2666 889 2 -0.325600 14.591617 14.732419 25.408648 # O_EP2 CO2
2667 889 3 -0.325600 15.713616 16.724419 25.012646 # O_EP3 CO2
2668 890 1 0.651200 29.009617 21.874418 28.578646 # C_EP1 CO2
2669 890 2 -0.325600 27.854616 21.807421 28.663647 # O_EP2 CO2
2670 890 3 -0.325600 30.164616 21.941418 28.493645 # O_EP3 CO2
2671 891 1 0.651200 11.576616 38.017418 13.622646 # C_EP1 CO2
2672 891 2 -0.325600 12.184616 37.394417 12.856646 # O_EP2 CO2
2673 891 3 -0.325600 10.969616 38.641418 14.388646 # O_EP3 CO2
2674 892 1 0.651200 10.564617 22.397421 2.733646 # C_EP1 CO2
2675 892 2 -0.325600 10.259617 21.414421 2.197646 # O_EP2 CO2
2676 892 3 -0.325600 10.868616 23.379419 3.270646 # O_EP3 CO2
2677 893 1 0.651200 36.267616 13.000420 33.797646 # C_EP1 CO2
2678 893 2 -0.325600 35.200619 12.951420 34.249645 # O_EP2 CO2
2679 893 3 -0.325600 37.335617 13.050419 33.345646 # O_EP3 CO2
2680 894 1 0.651200 3.774616 29.350418 8.774646 # C_EP1 CO2
2681 894 2 -0.325600 3.928617 30.486420 8.594646 # O_EP2 CO2
2682 894 3 -0.325600 3.620616 28.214418 8.953646 # O_EP3 CO2
2683 895 1 0.651200 19.430616 5.321419 33.940647 # C_EP1 CO2
2684 895 2 -0.325600 18.860617 5.689420 32.999645 # O_EP2 CO2
2685 895 3 -0.325600 19.999617 4.954420 34.882645 # O_EP3 CO2
2686 896 1 0.651200 21.144617 5.678420 32.568645 # C_EP1 CO2
2687 896 2 -0.325600 21.189615 6.637420 33.218647 # O_EP2 CO2
2688 896 3 -0.325600 21.098616 4.718419 31.918644 # O_EP3 CO2
2689 897 1 0.651200 15.801617 24.336418 11.659646 # C_EP1 CO2
2690 897 2 -0.325600 14.920616 24.106419 12.378646 # O_EP2 CO2
2691 897 3 -0.325600 16.681616 24.567421 10.941647 # O_EP3 CO2
2692 898 1 0.651200 2.447617 4.149419 31.594646 # C_EP1 CO2
2693 898 2 -0.325600 2.505617 4.188419 30.436647 # O_EP2 CO2
2694 898 3 -0.325600 2.389616 4.109419 32.752644 # O_EP3 CO2
2695 899 1 0.651200 24.890615 16.419418 36.754646 # C_EP1 CO2
2696 899 2 -0.325600 25.868616 17.041420 36.809647 # O_EP2 CO2
2697 899 3 -0.325600 23.912617 15.798420 36.699646 # O_EP3 CO2
2698 900 1 0.651200 37.974617 29.366419 8.191646 # C_EP1 CO2
2699 900 2 -0.325600 37.780617 29.514420 9.325646 # O_EP2 CO2
2700 900 3 -0.325600 38.168617 29.218418 7.057646 # O_EP3 CO2
2701 901 1 0.651200 26.415617 20.932419 24.252645 # C_EP1 CO2
2702 901 2 -0.325600 26.787617 21.165419 23.178646 # O_EP2 CO2
2703 901 3 -0.325600 26.043615 20.698418 25.326645 # O_EP3 CO2
2704 902 1 0.651200 29.812618 25.958420 14.437646 # C_EP1 CO2
2705 902 2 -0.325600 29.882618 26.457420 15.482646 # O_EP2 CO2
2706 902 3 -0.325600 29.742619 25.460419 13.391646 # O_EP3 CO2
2707 903 1 0.651200 23.599617 24.979420 16.283646 # C_EP1 CO2
2708 903 2 -0.325600 23.640615 24.943419 15.125647 # O_EP2 CO2
2709 903 3 -0.325600 23.558617 25.014420 17.442646 # O_EP3 CO2
2710 904 1 0.651200 19.056618 26.435421 30.486645 # C_EP1 CO2
2711 904 2 -0.325600 19.158615 26.612419 31.628647 # O_EP2 CO2
2712 904 3 -0.325600 18.953617 26.257420 29.345646 # O_EP3 CO2
2713 905 1 0.651200 9.342617 15.526420 27.060646 # C_EP1 CO2
2714 905 2 -0.325600 9.930616 14.991419 27.905645 # O_EP2 CO2
2715 905 3 -0.325600 8.754617 16.061419 26.215647 # O_EP3 CO2
2716 906 1 0.651200 37.074615 15.881419 11.068645 # C_EP1 CO2
2717 906 2 -0.325600 37.879616 15.509419 10.321646 # O_EP2 CO2
2718 906 3 -0.325600 36.268616 16.253418 11.815645 # O_EP3 CO2
2719 907 1 0.651200 15.864616 16.445419 19.387646 # C_EP1 CO2
2720 907 2 -0.325600 14.773617 16.057419 19.316647 # O_EP2 CO2
2721 907 3 -0.325600 16.954617 16.833420 19.458645 # O_EP3 CO2
2722 908 1 0.651200 25.823616 35.597420 4.675646 # C_EP1 CO2
2723 908 2 -0.325600 24.859617 34.980419 4.491646 # O_EP2 CO2
2724 908 3 -0.325600 26.788616 36.214417 4.860646 # O_EP3 CO2
2725 909 1 0.651200 18.419617 7.401419 35.565647 # C_EP1 CO2
2726 909 2 -0.325600 18.314617 7.282419 34.416649 # O_EP2 CO2
2727 909 3 -0.325600 18.524616 7.520419 36.714645 # O_EP3 CO2
2728 910 1 0.651200 25.101616 4.879419 25.331646 # C_EP1 CO2
2729 910 2 -0.325600 24.959618 5.348420 26.383646 # O_EP2 CO2
2730 910 3 -0.325600 25.243616 4.409419 24.280645 # O_EP3 CO2
2731 911 1 0.651200 17.787617 35.979420 30.321646 # C_EP1 CO2
2732 911 2 -0.325600 17.902617 35.956417 31.475647 # O_EP2 CO2
2733 911 3 -0.325600 17.673616 36.001419 29.166645 # O_EP3 CO2
2734 912 1 0.651200 2.250617 36.471420 23.232647 # C_EP1 CO2
2735 912 2 -0.325600 2.703617 36.666420 24.282646 # O_EP2 CO2
2736 912 3 -0.325600 1.798617 36.276421 22.182646 # O_EP3 CO2
2737 913 1 0.651200 21.242617 23.768421 2.621646 # C_EP1 CO2
2738 913 2 -0.325600 20.791616 23.862419 3.685646 # O_EP2 CO2
2739 913 3 -0.325600 21.693615 23.673420 1.557646 # O_EP3 CO2
2740 914 1 0.651200 9.874617 10.557419 12.479647 # C_EP1 CO2
2741 914 2 -0.325600 10.899616 11.101419 12.507647 # O_EP2 CO2
2742 914 3 -0.325600 8.849617 10.014420 12.451647 # O_EP3 CO2
2743 915 1 0.651200 27.206615 4.684419 4.970646 # C_EP1 CO2
2744 915 2 -0.325600 27.082617 4.226419 3.912646 # O_EP2 CO2
2745 915 3 -0.325600 27.331617 5.142419 6.029646 # O_EP3 CO2
2746 916 1 0.651200 12.278616 31.460419 25.187645 # C_EP1 CO2
2747 916 2 -0.325600 13.399616 31.628420 24.939648 # O_EP2 CO2
2748 916 3 -0.325600 11.158617 31.292419 25.434647 # O_EP3 CO2
2749 917 1 0.651200 25.373615 25.070419 26.668646 # C_EP1 CO2
2750 917 2 -0.325600 25.350616 25.666420 27.662647 # O_EP2 CO2
2751 917 3 -0.325600 25.395618 24.473419 25.673647 # O_EP3 CO2
2752 918 1 0.651200 32.027618 17.212420 9.994646 # C_EP1 CO2
2753 918 2 -0.325600 31.410616 16.529419 9.288646 # O_EP2 CO2
2754 918 3 -0.325600 32.644619 17.895420 10.699646 # O_EP3 CO2
2755 919 1 0.651200 3.921616 17.897419 4.996646 # C_EP1 CO2
2756 919 2 -0.325600 4.638617 18.808420 4.980646 # O_EP2 CO2
2757 919 3 -0.325600 3.203616 16.985420 5.013646 # O_EP3 CO2
2758 920 1 0.651200 2.841617 14.713420 27.957647 # C_EP1 CO2
2759 920 2 -0.325600 3.938617 15.035419 27.760647 # O_EP2 CO2
2760 920 3 -0.325600 1.744617 14.391420 28.153646 # O_EP3 CO2
2761 921 1 0.651200 3.930616 30.427420 25.915646 # C_EP1 CO2
2762 921 2 -0.325600 3.178617 30.586418 25.046646 # O_EP2 CO2
2763 921 3 -0.325600 4.682617 30.268419 26.784647 # O_EP3 CO2
2764 922 1 0.651200 25.880615 28.258419 30.384645 # C_EP1 CO2
2765 922 2 -0.325600 25.415615 27.550419 29.591646 # O_EP2 CO2
2766 922 3 -0.325600 26.345615 28.965418 31.177647 # O_EP3 CO2
2767 923 1 0.651200 2.704617 26.008419 9.932646 # C_EP1 CO2
2768 923 2 -0.325600 2.566617 26.281418 8.813646 # O_EP2 CO2
2769 923 3 -0.325600 2.842617 25.735418 11.051646 # O_EP3 CO2
2770 924 1 0.651200 20.600616 14.934420 4.980646 # C_EP1 CO2
2771 924 2 -0.325600 20.706615 15.044420 6.130646 # O_EP2 CO2
2772 924 3 -0.325600 20.494616 14.825419 3.830646 # O_EP3 CO2
2773 925 1 0.651200 22.026617 22.692421 18.746645 # C_EP1 CO2
2774 925 2 -0.325600 21.437616 22.542419 19.734646 # O_EP2 CO2
2775 925 3 -0.325600 22.614616 22.841419 17.757647 # O_EP3 CO2
2776 926 1 0.651200 4.222617 20.468418 25.889647 # C_EP1 CO2
2777 926 2 -0.325600 4.619617 19.386419 25.763645 # O_EP2 CO2
2778 926 3 -0.325600 3.825617 21.551418 26.015646 # O_EP3 CO2
2779 927 1 0.651200 26.643618 7.633420 13.666647 # C_EP1 CO2
2780 927 2 -0.325600 26.692617 7.535419 14.821646 # O_EP2 CO2
2781 927 3 -0.325600 26.595615 7.732419 12.512646 # O_EP3 CO2
2782 928 1 0.651200 4.311616 20.925419 36.466644 # C_EP1 CO2
2783 928 2 -0.325600 4.186616 20.900419 37.619644 # O_EP2 CO2
2784 928 3 -0.325600 4.435616 20.950420 35.313648 # O_EP3 CO2
2785 929 1 0.651200 15.933617 12.287418 23.161644 # C_EP1 CO2
2786 929 2 -0.325600 16.092617 11.138419 23.187647 # O_EP2 CO2
2787 929 3 -0.325600 15.774616 13.435420 23.134647 # O_EP3 CO2
2788 930 1 0.651200 37.568619 10.148419 9.588646 # C_EP1 CO2
2789 930 2 -0.325600 38.327618 10.595419 10.343646 # O_EP2 CO2
2790 930 3 -0.325600 36.808617 9.702419 8.833646 # O_EP3 CO2
2791 931 1 0.651200 28.314617 21.551418 18.472647 # C_EP1 CO2
2792 931 2 -0.325600 27.245617 21.892418 18.177647 # O_EP2 CO2
2793 931 3 -0.325600 29.383617 21.210421 18.766647 # O_EP3 CO2
2794 932 1 0.651200 19.767616 32.210419 1.855646 # C_EP1 CO2
2795 932 2 -0.325600 19.439617 31.272419 1.256646 # O_EP2 CO2
2796 932 3 -0.325600 20.095615 33.148418 2.453646 # O_EP3 CO2
2797 933 1 0.651200 11.753616 9.542419 9.224646 # C_EP1 CO2
2798 933 2 -0.325600 12.298616 9.251419 10.206646 # O_EP2 CO2
2799 933 3 -0.325600 11.209617 9.833420 8.242646 # O_EP3 CO2
2800 934 1 0.651200 15.795616 36.051418 17.700645 # C_EP1 CO2
2801 934 2 -0.325600 16.134617 36.524422 16.697647 # O_EP2 CO2
2802 934 3 -0.325600 15.457617 35.578419 18.704645 # O_EP3 CO2
2803 935 1 0.651200 16.533617 32.712418 12.179646 # C_EP1 CO2
2804 935 2 -0.325600 17.541616 32.884418 12.726645 # O_EP2 CO2
2805 935 3 -0.325600 15.525617 32.539421 11.632647 # O_EP3 CO2
2806 936 1 0.651200 35.104614 13.252419 28.927647 # C_EP1 CO2
2807 936 2 -0.325600 35.857616 13.062420 28.065645 # O_EP2 CO2
2808 936 3 -0.325600 34.351616 13.442420 29.789646 # O_EP3 CO2
2809 937 1 0.651200 30.645617 21.671419 8.475646 # C_EP1 CO2
2810 937 2 -0.325600 31.483616 21.177422 9.107646 # O_EP2 CO2
2811 937 3 -0.325600 29.807617 22.165421 7.843646 # O_EP3 CO2
2812 938 1 0.651200 2.204616 4.935420 20.704647 # C_EP1 CO2
2813 938 2 -0.325600 2.615617 5.951419 20.323647 # O_EP2 CO2
2814 938 3 -0.325600 1.793617 3.920419 21.084648 # O_EP3 CO2
2815 939 1 0.651200 19.012617 20.281420 4.243646 # C_EP1 CO2
2816 939 2 -0.325600 17.926617 19.881418 4.166646 # O_EP2 CO2
2817 939 3 -0.325600 20.098618 20.680420 4.320646 # O_EP3 CO2
2818 940 1 0.651200 1.980616 23.776419 24.878645 # C_EP1 CO2
2819 940 2 -0.325600 1.590617 23.236420 23.928646 # O_EP2 CO2
2820 940 3 -0.325600 2.369617 24.315418 25.828646 # O_EP3 CO2
2821 941 1 0.651200 31.174618 10.121420 37.187645 # C_EP1 CO2
2822 941 2 -0.325600 31.573618 9.574419 38.129646 # O_EP2 CO2
2823 941 3 -0.325600 30.775616 10.668420 36.245647 # O_EP3 CO2
2824 942 1 0.651200 6.482616 37.198418 16.727646 # C_EP1 CO2
2825 942 2 -0.325600 5.426617 37.659420 16.593645 # O_EP2 CO2
2826 942 3 -0.325600 7.537617 36.736420 16.861647 # O_EP3 CO2
2827 943 1 0.651200 28.581617 16.017420 1.316646 # C_EP1 CO2
2828 943 2 -0.325600 27.663616 15.451420 0.888646 # O_EP2 CO2
2829 943 3 -0.325600 29.499617 16.582420 1.743646 # O_EP3 CO2
2830 944 1 0.651200 5.792617 19.064419 16.947647 # C_EP1 CO2
2831 944 2 -0.325600 5.549616 18.440420 16.000647 # O_EP2 CO2
2832 944 3 -0.325600 6.036616 19.689419 17.894646 # O_EP3 CO2
2833 945 1 0.651200 12.506617 26.987419 15.768646 # C_EP1 CO2
2834 945 2 -0.325600 11.865617 26.754419 16.706646 # O_EP2 CO2
2835 945 3 -0.325600 13.147616 27.220419 14.830647 # O_EP3 CO2
2836 946 1 0.651200 8.916616 9.738420 36.180645 # C_EP1 CO2
2837 946 2 -0.325600 8.869617 10.293419 37.197647 # O_EP2 CO2
2838 946 3 -0.325600 8.963616 9.182419 35.163647 # O_EP3 CO2
2839 947 1 0.651200 7.573617 6.285419 7.521646 # C_EP1 CO2
2840 947 2 -0.325600 7.945616 5.592420 6.669646 # O_EP2 CO2
2841 947 3 -0.325600 7.202616 6.979420 8.373646 # O_EP3 CO2
2842 948 1 0.651200 2.790617 28.135418 30.741646 # C_EP1 CO2
2843 948 2 -0.325600 3.422616 29.096420 30.590647 # O_EP2 CO2
2844 948 3 -0.325600 2.159617 27.174419 30.893646 # O_EP3 CO2
2845 949 1 0.651200 16.824615 16.395420 22.498646 # C_EP1 CO2
2846 949 2 -0.325600 15.829617 15.989419 22.063646 # O_EP2 CO2
2847 949 3 -0.325600 17.820618 16.800419 22.934647 # O_EP3 CO2
2848 950 1 0.651200 35.445618 16.190418 28.487646 # C_EP1 CO2
2849 950 2 -0.325600 35.424618 16.422421 27.351646 # O_EP2 CO2
2850 950 3 -0.325600 35.466618 15.957420 29.623646 # O_EP3 CO2
2851 951 1 0.651200 14.046617 7.601419 30.472645 # C_EP1 CO2
2852 951 2 -0.325600 14.543617 7.150419 31.418646 # O_EP2 CO2
2853 951 3 -0.325600 13.548616 8.051419 29.525646 # O_EP3 CO2
2854 952 1 0.651200 22.516615 22.384418 13.799646 # C_EP1 CO2
2855 952 2 -0.325600 22.561617 22.150419 12.664646 # O_EP2 CO2
2856 952 3 -0.325600 22.472618 22.618420 14.934646 # O_EP3 CO2
2857 953 1 0.651200 30.183617 34.703419 15.903646 # C_EP1 CO2
2858 953 2 -0.325600 29.731617 35.124420 14.921646 # O_EP2 CO2
2859 953 3 -0.325600 30.635616 34.282421 16.885647 # O_EP3 CO2
2860 954 1 0.651200 5.578616 18.231419 8.709646 # C_EP1 CO2
2861 954 2 -0.325600 6.518617 18.368420 8.044645 # O_EP2 CO2
2862 954 3 -0.325600 4.637616 18.095419 9.375647 # O_EP3 CO2
2863 955 1 0.651200 3.157617 20.548420 21.177647 # C_EP1 CO2
2864 955 2 -0.325600 3.287616 19.997419 20.164646 # O_EP2 CO2
2865 955 3 -0.325600 3.027617 21.098421 22.190647 # O_EP3 CO2
2866 956 1 0.651200 7.262617 23.198418 23.682648 # C_EP1 CO2
2867 956 2 -0.325600 7.453616 22.055418 23.629646 # O_EP2 CO2
2868 956 3 -0.325600 7.071617 24.341419 23.735647 # O_EP3 CO2
2869 957 1 0.651200 20.400618 10.190419 14.386645 # C_EP1 CO2
2870 957 2 -0.325600 20.922615 10.809420 13.555646 # O_EP2 CO2
2871 957 3 -0.325600 19.879618 9.570419 15.216646 # O_EP3 CO2
2872 958 1 0.651200 11.959616 32.857422 11.745646 # C_EP1 CO2
2873 958 2 -0.325600 11.755617 33.383419 10.732646 # O_EP2 CO2
2874 958 3 -0.325600 12.163616 32.331421 12.759646 # O_EP3 CO2
2875 959 1 0.651200 34.543617 17.953419 31.491646 # C_EP1 CO2
2876 959 2 -0.325600 34.272617 17.491419 32.520645 # O_EP2 CO2
2877 959 3 -0.325600 34.813618 18.415419 30.462646 # O_EP3 CO2
2878 960 1 0.651200 33.819614 28.495419 23.759647 # C_EP1 CO2
2879 960 2 -0.325600 33.289616 28.914421 24.703646 # O_EP2 CO2
2880 960 3 -0.325600 34.348618 28.077419 22.815647 # O_EP3 CO2
2881 961 1 0.651200 37.737617 27.795420 3.964646 # C_EP1 CO2
2882 961 2 -0.325600 38.084618 26.894419 4.607646 # O_EP2 CO2
2883 961 3 -0.325600 37.391617 28.696421 3.320646 # O_EP3 CO2
2884 962 1 0.651200 12.446617 36.717419 26.354647 # C_EP1 CO2
2885 962 2 -0.325600 12.315617 37.862419 26.487646 # O_EP2 CO2
2886 962 3 -0.325600 12.577616 35.572418 26.221645 # O_EP3 CO2
2887 963 1 0.651200 29.909615 24.022419 26.399647 # C_EP1 CO2
2888 963 2 -0.325600 29.989616 24.070419 25.243647 # O_EP2 CO2
2889 963 3 -0.325600 29.828617 23.973419 27.555647 # O_EP3 CO2
2890 964 1 0.651200 9.646616 5.840420 14.453646 # C_EP1 CO2
2891 964 2 -0.325600 9.528617 5.720419 15.601645 # O_EP2 CO2
2892 964 3 -0.325600 9.765616 5.960419 13.306646 # O_EP3 CO2
2893 965 1 0.651200 19.917618 1.260419 20.568645 # C_EP1 CO2
2894 965 2 -0.325600 20.800617 1.242419 19.817646 # O_EP2 CO2
2895 965 3 -0.325600 19.033617 1.279419 21.320646 # O_EP3 CO2
2896 966 1 0.651200 34.684616 26.789419 14.044646 # C_EP1 CO2
2897 966 2 -0.325600 34.755615 27.335419 15.065646 # O_EP2 CO2
2898 966 3 -0.325600 34.614616 26.243420 13.023645 # O_EP3 CO2
2899 967 1 0.651200 30.061617 15.023420 28.536646 # C_EP1 CO2
2900 967 2 -0.325600 29.531616 15.335419 27.553646 # O_EP2 CO2
2901 967 3 -0.325600 30.590618 14.710419 29.520645 # O_EP3 CO2
2902 968 1 0.651200 15.332617 35.267418 12.467647 # C_EP1 CO2
2903 968 2 -0.325600 15.678617 34.759418 11.483645 # O_EP2 CO2
2904 968 3 -0.325600 14.986616 35.774418 13.451647 # O_EP3 CO2
2905 969 1 0.651200 8.804616 34.653419 23.468647 # C_EP1 CO2
2906 969 2 -0.325600 8.045617 35.526421 23.385647 # O_EP2 CO2
2907 969 3 -0.325600 9.563617 33.780418 23.550646 # O_EP3 CO2
2908 970 1 0.651200 26.558617 32.245419 2.478646 # C_EP1 CO2
2909 970 2 -0.325600 26.858616 31.863420 3.531646 # O_EP2 CO2
2910 970 3 -0.325600 26.258617 32.627419 1.424646 # O_EP3 CO2
2911 971 1 0.651200 31.648617 32.670418 28.829647 # C_EP1 CO2
2912 971 2 -0.325600 31.648617 32.686420 29.989645 # O_EP2 CO2
2913 971 3 -0.325600 31.648617 32.653419 27.669647 # O_EP3 CO2
2914 972 1 0.651200 1.848616 30.793419 22.096645 # C_EP1 CO2
2915 972 2 -0.325600 2.805617 31.410419 21.875647 # O_EP2 CO2
2916 972 3 -0.325600 0.891616 30.177420 22.317646 # O_EP3 CO2
2917 973 1 0.651200 38.000618 33.631420 18.552645 # C_EP1 CO2
2918 973 2 -0.325600 37.696617 33.808418 17.446646 # O_EP2 CO2
2919 973 3 -0.325600 38.303616 33.454422 19.657646 # O_EP3 CO2
2920 974 1 0.651200 28.277617 31.604420 30.654644 # C_EP1 CO2
2921 974 2 -0.325600 28.472616 31.517420 29.514647 # O_EP2 CO2
2922 974 3 -0.325600 28.081617 31.691420 31.794645 # O_EP3 CO2
2923 975 1 0.651200 14.176617 26.941418 12.864646 # C_EP1 CO2
2924 975 2 -0.325600 13.320617 26.579420 12.171646 # O_EP2 CO2
2925 975 3 -0.325600 15.032617 27.304420 13.558646 # O_EP3 CO2
2926 976 1 0.651200 35.739616 5.297420 36.856647 # C_EP1 CO2
2927 976 2 -0.325600 34.603619 5.068419 36.913647 # O_EP2 CO2
2928 976 3 -0.325600 36.875618 5.526419 36.800648 # O_EP3 CO2
2929 977 1 0.651200 35.453617 10.307419 14.018646 # C_EP1 CO2
2930 977 2 -0.325600 34.337616 10.148419 13.744646 # O_EP2 CO2
2931 977 3 -0.325600 36.569618 10.465420 14.291647 # O_EP3 CO2
2932 978 1 0.651200 11.574616 18.277420 26.818645 # C_EP1 CO2
2933 978 2 -0.325600 12.005616 19.241419 26.339645 # O_EP2 CO2
2934 978 3 -0.325600 11.144617 17.313419 27.298645 # O_EP3 CO2
2935 979 1 0.651200 36.433617 12.073420 12.516646 # C_EP1 CO2
2936 979 2 -0.325600 36.644615 11.234419 11.743646 # O_EP2 CO2
2937 979 3 -0.325600 36.223618 12.912418 13.289646 # O_EP3 CO2
2938 980 1 0.651200 37.643616 20.377419 13.863646 # C_EP1 CO2
2939 980 2 -0.325600 37.754616 19.974419 14.945646 # O_EP2 CO2
2940 980 3 -0.325600 37.532616 20.780420 12.781647 # O_EP3 CO2
2941 981 1 0.651200 3.756616 35.542419 27.293646 # C_EP1 CO2
2942 981 2 -0.325600 3.497617 35.517418 28.424646 # O_EP2 CO2
2943 981 3 -0.325600 4.015616 35.566422 26.163647 # O_EP3 CO2
2944 982 1 0.651200 29.146616 36.072418 7.673646 # C_EP1 CO2
2945 982 2 -0.325600 28.422615 36.638420 6.965646 # O_EP2 CO2
2946 982 3 -0.325600 29.871616 35.506420 8.380646 # O_EP3 CO2
2947 983 1 0.651200 28.235617 31.724419 8.382646 # C_EP1 CO2
2948 983 2 -0.325600 29.254618 31.650419 7.834646 # O_EP2 CO2
2949 983 3 -0.325600 27.215616 31.798420 8.930646 # O_EP3 CO2
2950 984 1 0.651200 21.120617 15.080420 21.260645 # C_EP1 CO2
2951 984 2 -0.325600 20.520615 15.096418 20.267647 # O_EP2 CO2
2952 984 3 -0.325600 21.720617 15.064420 22.253647 # O_EP3 CO2
2953 985 1 0.651200 33.452614 1.692420 29.354647 # C_EP1 CO2
2954 985 2 -0.325600 33.087616 1.799419 30.450647 # O_EP2 CO2
2955 985 3 -0.325600 33.817616 1.584419 28.258646 # O_EP3 CO2
2956 986 1 0.651200 10.173616 20.923420 25.929646 # C_EP1 CO2
2957 986 2 -0.325600 10.078616 20.600418 24.819645 # O_EP2 CO2
2958 986 3 -0.325600 10.267616 21.245420 27.039646 # O_EP3 CO2
2959 987 1 0.651200 15.367617 26.015419 33.847649 # C_EP1 CO2
2960 987 2 -0.325600 15.539617 26.867418 33.079647 # O_EP2 CO2
2961 987 3 -0.325600 15.196617 25.162420 34.615646 # O_EP3 CO2
2962 988 1 0.651200 9.461617 10.408420 26.815645 # C_EP1 CO2
2963 988 2 -0.325600 8.873616 11.111420 27.526646 # O_EP2 CO2
2964 988 3 -0.325600 10.049616 9.705420 26.104645 # O_EP3 CO2
2965 989 1 0.651200 3.609617 38.819420 29.723646 # C_EP1 CO2
2966 989 2 -0.325600 2.468616 38.802418 29.929646 # O_EP2 CO2
2967 989 3 -0.325600 4.751616 38.836418 29.518646 # O_EP3 CO2
2968 990 1 0.651200 12.393617 30.616419 9.033646 # C_EP1 CO2
2969 990 2 -0.325600 12.586617 30.020420 8.057646 # O_EP2 CO2
2970 990 3 -0.325600 12.199616 31.212421 10.009646 # O_EP3 CO2
2971 991 1 0.651200 16.165617 18.151419 36.725647 # C_EP1 CO2
2972 991 2 -0.325600 15.494616 19.092419 36.633648 # O_EP2 CO2
2973 991 3 -0.325600 16.835617 17.209419 36.817646 # O_EP3 CO2
2974 992 1 0.651200 19.626617 14.478420 23.400646 # C_EP1 CO2
2975 992 2 -0.325600 20.519617 14.329419 24.124645 # O_EP2 CO2
2976 992 3 -0.325600 18.732616 14.628420 22.675646 # O_EP3 CO2
2977 993 1 0.651200 20.384617 11.132420 5.310646 # C_EP1 CO2
2978 993 2 -0.325600 20.817616 12.207420 5.357646 # O_EP2 CO2
2979 993 3 -0.325600 19.950617 10.057420 5.263646 # O_EP3 CO2
2980 994 1 0.651200 7.498617 36.858421 4.783646 # C_EP1 CO2
2981 994 2 -0.325600 7.603617 37.932419 5.209646 # O_EP2 CO2
2982 994 3 -0.325600 7.394617 35.784420 4.358646 # O_EP3 CO2
2983 995 1 0.651200 32.603615 5.362420 18.823647 # C_EP1 CO2
2984 995 2 -0.325600 32.427616 4.999419 19.911648 # O_EP2 CO2
2985 995 3 -0.325600 32.780617 5.724420 17.736647 # O_EP3 CO2
2986 996 1 0.651200 23.293617 24.283419 5.813646 # C_EP1 CO2
2987 996 2 -0.325600 23.860617 24.606419 6.771646 # O_EP2 CO2
2988 996 3 -0.325600 22.726616 23.959419 4.854646 # O_EP3 CO2
2989 997 1 0.651200 3.354616 18.368420 29.832647 # C_EP1 CO2
2990 997 2 -0.325600 2.621616 17.475418 29.729645 # O_EP2 CO2
2991 997 3 -0.325600 4.087616 19.261419 29.936646 # O_EP3 CO2
2992 998 1 0.651200 33.217617 1.452420 17.279646 # C_EP1 CO2
2993 998 2 -0.325600 33.243614 1.243419 16.138647 # O_EP2 CO2
2994 998 3 -0.325600 33.192616 1.660419 18.420647 # O_EP3 CO2
2995 999 1 0.651200 9.585617 15.079420 34.901646 # C_EP1 CO2
2996 999 2 -0.325600 9.917617 15.052420 33.790646 # O_EP2 CO2
2997 999 3 -0.325600 9.253616 15.106420 36.012646 # O_EP3 CO2
2998 1000 1 0.651200 13.302617 37.573418 7.762646 # C_EP1 CO2
2999 1000 2 -0.325600 13.056617 38.697418 7.616646 # O_EP2 CO2
3000 1000 3 -0.325600 13.549616 36.449421 7.908646 # O_EP3 CO2
3001 1001 1 0.651200 10.264616 13.738420 24.753647 # C_EP1 CO2
3002 1001 2 -0.325600 10.351616 14.197420 23.691647 # O_EP2 CO2
3003 1001 3 -0.325600 10.177617 13.279419 25.815647 # O_EP3 CO2
3004 1002 1 0.651200 23.069614 6.700419 31.950645 # C_EP1 CO2
3005 1002 2 -0.325600 23.541618 6.653419 33.009647 # O_EP2 CO2
3006 1002 3 -0.325600 22.598618 6.748419 30.891645 # O_EP3 CO2
3007 1003 1 0.651200 8.300617 17.054420 31.858646 # C_EP1 CO2
3008 1003 2 -0.325600 8.434616 16.260418 32.693645 # O_EP2 CO2
3009 1003 3 -0.325600 8.167617 17.847420 31.022646 # O_EP3 CO2
3010 1004 1 0.651200 35.527615 31.975420 19.668646 # C_EP1 CO2
3011 1004 2 -0.325600 35.639618 32.168419 18.530647 # O_EP2 CO2
3012 1004 3 -0.325600 35.415615 31.782419 20.806646 # O_EP3 CO2
3013 1005 1 0.651200 28.359615 5.240419 13.686646 # C_EP1 CO2
3014 1005 2 -0.325600 27.999615 5.946419 12.840647 # O_EP2 CO2
3015 1005 3 -0.325600 28.720617 4.534420 14.533646 # O_EP3 CO2
3016 1006 1 0.651200 2.648616 22.846420 28.849648 # C_EP1 CO2
3017 1006 2 -0.325600 2.608616 22.802420 30.008644 # O_EP2 CO2
3018 1006 3 -0.325600 2.688617 22.891418 27.691647 # O_EP3 CO2
3019 1007 1 0.651200 25.315617 5.355420 17.081646 # C_EP1 CO2
3020 1007 2 -0.325600 25.317616 4.465419 17.825645 # O_EP2 CO2
3021 1007 3 -0.325600 25.313616 6.246419 16.338646 # O_EP3 CO2
3022 1008 1 0.651200 21.421616 16.519419 30.546646 # C_EP1 CO2
3023 1008 2 -0.325600 21.414616 16.713419 31.689646 # O_EP2 CO2
3024 1008 3 -0.325600 21.427616 16.325418 29.402647 # O_EP3 CO2
3025 1009 1 0.651200 31.540615 5.825419 9.652645 # C_EP1 CO2
3026 1009 2 -0.325600 30.906618 5.923419 10.619646 # O_EP2 CO2
3027 1009 3 -0.325600 32.173618 5.726419 8.685646 # O_EP3 CO2
3028 1010 1 0.651200 21.765615 36.881420 11.142646 # C_EP1 CO2
3029 1010 2 -0.325600 22.758617 37.242420 11.619646 # O_EP2 CO2
3030 1010 3 -0.325600 20.771616 36.521420 10.664645 # O_EP3 CO2
3031 1011 1 0.651200 1.463616 35.274422 8.965646 # C_EP1 CO2
3032 1011 2 -0.325600 1.396617 34.927422 10.070646 # O_EP2 CO2
3033 1011 3 -0.325600 1.531616 35.622421 7.861646 # O_EP3 CO2
3034 1012 1 0.651200 35.022617 17.123419 24.044645 # C_EP1 CO2
3035 1012 2 -0.325600 33.871616 17.224419 24.148645 # O_EP2 CO2
3036 1012 3 -0.325600 36.173615 17.022419 23.940647 # O_EP3 CO2
3037 1013 1 0.651200 33.944618 20.405418 12.692646 # C_EP1 CO2
3038 1013 2 -0.325600 33.822617 20.606421 13.828646 # O_EP2 CO2
3039 1013 3 -0.325600 34.065617 20.204420 11.556645 # O_EP3 CO2
3040 1014 1 0.651200 5.226616 8.721419 15.776646 # C_EP1 CO2
3041 1014 2 -0.325600 4.750617 9.281420 14.878646 # O_EP2 CO2
3042 1014 3 -0.325600 5.701616 8.160419 16.673645 # O_EP3 CO2
3043 1015 1 0.651200 30.849617 4.516419 24.042646 # C_EP1 CO2
3044 1015 2 -0.325600 29.922617 3.839419 23.872644 # O_EP2 CO2
3045 1015 3 -0.325600 31.776617 5.192419 24.213646 # O_EP3 CO2
3046 1016 1 0.651200 2.100616 15.111419 7.051646 # C_EP1 CO2
3047 1016 2 -0.325600 2.408617 14.551419 8.019646 # O_EP2 CO2
3048 1016 3 -0.325600 1.791617 15.671419 6.083646 # O_EP3 CO2
3049 1017 1 0.651200 23.713617 24.176418 20.615646 # C_EP1 CO2
3050 1017 2 -0.325600 23.793617 24.134418 19.458645 # O_EP2 CO2
3051 1017 3 -0.325600 23.632618 24.218418 21.771645 # O_EP3 CO2
3052 1018 1 0.651200 7.290617 18.499420 38.098644 # C_EP1 CO2
3053 1018 2 -0.325600 7.647616 17.409420 37.924644 # O_EP2 CO2
3054 1018 3 -0.325600 6.933617 19.588419 38.272644 # O_EP3 CO2
3055 1019 1 0.651200 22.455616 20.193420 26.523645 # C_EP1 CO2
3056 1019 2 -0.325600 22.378616 19.133419 26.988647 # O_EP2 CO2
3057 1019 3 -0.325600 22.533617 21.253418 26.058645 # O_EP3 CO2
3058 1020 1 0.651200 15.841617 11.749419 36.672646 # C_EP1 CO2
3059 1020 2 -0.325600 15.623616 12.262420 35.654644 # O_EP2 CO2
3060 1020 3 -0.325600 16.058617 11.236420 37.689644 # O_EP3 CO2
3061 1021 1 0.651200 10.309616 8.578420 13.335647 # C_EP1 CO2
3062 1021 2 -0.325600 9.833616 8.672420 14.388646 # O_EP2 CO2
3063 1021 3 -0.325600 10.785617 8.485419 12.281646 # O_EP3 CO2
3064 1022 1 0.651200 30.820618 31.196421 12.773646 # C_EP1 CO2
3065 1022 2 -0.325600 30.764616 31.091419 13.926645 # O_EP2 CO2
3066 1022 3 -0.325600 30.877617 31.301420 11.619646 # O_EP3 CO2
3067 1023 1 0.651200 1.938617 24.935419 15.785646 # C_EP1 CO2
3068 1023 2 -0.325600 1.749617 24.693420 14.666645 # O_EP2 CO2
3069 1023 3 -0.325600 2.127616 25.176420 16.903646 # O_EP3 CO2
3070 1024 1 0.651200 14.498616 9.798420 22.470646 # C_EP1 CO2
3071 1024 2 -0.325600 15.445616 9.197419 22.175646 # O_EP2 CO2
3072 1024 3 -0.325600 13.551617 10.400419 22.765646 # O_EP3 CO2

 Bonds

1 1 1 3
2 1 1 2
3 1 4 6
4 1 4 5
5 1 7 8
6 1 7 9
7 1 10 11
8 1 10 12
9 1 13 14
10 1 13 15
11 1 16 18
12 1 16 17
13 1 19 20
14 1 19 21
15 1 22 24
16 1 22 23
17 1 25 26
18 1 25 27
19 1 28 30
20 1 28 29
21 1 31 33
22 1 31 32
23 1 34 36
24 1 34 35
25 1 37 38
26 1 37 39
27 1 40 41
28 1 40 42
29 1 43 44
30 1 43 45
31 1 46 47
32 1 46 48
33 1 49 51
34 1 49 50
35 1 52 54
36 1 52 53
37 1 55 57
38 1 55 56
39 1 58 60
40 1 58 59
41 1 61 62
42 1 61 63
43 1 64 65
44 1 64 66
45 1 67 68
46 1 67 69
47 1 70 72
48 1 70 71
49 1 73 74
50 1 73 75
51 1 76 78
52 1 76 77
53 1 79 81
54 1 79 80
55 1 82 84
56 1 82 83
57 1 85 87
58 1 85 86
59 1 88 90
60 1 88 89
61 1 91 92
62 1 91 93
63 1 94 96
64 1 94 95
65 1 97 99
66 1 97 98
67 1 100 102
68 1 100 101
69 1 103 105
70 1 103 104
71 1 106 108
72 1 106 107
73 1 109 111
74 1 109 110
75 1 112 114
76 1 112 113
77 1 115 116
78 1 115 117
79 1 118 120
80 1 118 119
81 1 121 122
82 1 121 123
83 1 124 125
84 1 124 126
85 1 127 128
86 1 127 129
87 1 130 132
88 1 130 131
89 1 133 135
90 1 133 134
91 1 136 137
92 1 136 138
93 1 139 140
94 1 139 141
95 1 142 144
96 1 142 143
97 1 145 146
98 1 145 147
99 1 148 149
100 1 148 150
101 1 151 152
102 1 151 153
103 1 154 156
104 1 154 155
105 1 157 159
106 1 157 158
107 1 160 161
108 1 160 162
109 1 163 164
110 1 163 165
111 1 166 167
112 1 166 168
113 1 169 171
114 1 169 170
115 1 172 174
116 1 172 173
117 1 175 176
118 1 175 177
119 1 178 179
120 1 178 180
121 1 181 183
122 1 181 182
123 1 184 186
124 1 184 185
125 1 187 189
126 1 187 188
127 1 190 191
128 1 190 192
129 1 193 194
130 1 193 195
131 1 196 198
132 1 196 197
133 1 199 200
134 1 199 201
135 1 202 203
136 1 202 204
137 1 205 206
138 1 205 207
139 1 208 210
140 1 208 209
141 1 211 212
142 1 211 213
143 1 214 216
144 1 214 215
145 1 217 219
146 1 217 218
147 1 220 222
148 1 220 221
149 1 223 225
150 1 223 224
151 1 226 228
152 1 226 227
153 1 229 230
154 1 229 231
155 1 232 233
156 1 232 234
157 1 235 237
158 1 235 236
159 1 238 239
160 1 238 240
161 1 241 242
162 1 241 243
163 1 244 245
164 1 244 246
165 1 247 249
166 1 247 248
167 1 250 252
168 1 250 251
169 1 253 255
170 1 253 254
171 1 256 258
172 1 256 257
173 1 259 260
174 1 259 261
175 1 262 263
176 1 262 264
177 1 265 266
178 1 265 267
179 1 268 269
180 1 268 270
181 1 271 272
182 1 271 273
183 1 274 275
184 1 274 276
185 1 277 279
186 1 277 278
187 1 280 281
188 1 280 282
189 1 283 285
190 1 283 284
191 1 286 287
192 1 286 288
193 1 289 290
194 1 289 291
195 1 292 294
196 1 292 293
197 1 295 296
198 1 295 297
199 1 298 300
200 1 298 299
201 1 301 302
202 1 301 303
203 1 304 306
204 1 304 305
205 1 307 308
206 1 307 309
207 1 310 312
208 1 310 311
209 1 313 314
210 1 313 315
211 1 316 318
212 1 316 317
213 1 319 321
214 1 319 320
215 1 322 324
216 1 322 323
217 1 325 327
218 1 325 326
219 1 328 330
220 1 328 329
221 1 331 333
222 1 331 332
223 1 334 336
224 1 334 335
225 1 337 339
226 1 337 338
227 1 340 341
228 1 340 342
229 1 343 344
230 1 343 345
231 1 346 348
232 1 346 347
233 1 349 350
234 1 349 351
235 1 352 353
236 1 352 354
237 1 355 357
238 1 355 356
239 1 358 359
240 1 358 360
241 1 361 362
242 1 361 363
243 1 364 365
244 1 364 366
245 1 367 368
246 1 367 369
247 1 370 371
248 1 370 372
249 1 373 374
250 1 373 375
251 1 376 377
252 1 376 378
253 1 379 381
254 1 379 380
255 1 382 384
256 1 382 383
257 1 385 387
258 1 385 386
259 1 388 389
260 1 388 390
261 1 391 393
262 1 391 392
263 1 394 395
264 1 394 396
265 1 397 399
266 1 397 398
267 1 400 401
268 1 400 402
269 1 403 404
270 1 403 405
271 1 406 407
272 1 406 408
273 1 409 410
274 1 409 411
275 1 412 414
276 1 412 413
277 1 415 416
278 1 415 417
279 1 418 420
280 1 418 419
281 1 421 422
282 1 421 423
283 1 424 425
284 1 424 426
285 1 427 429
286 1 427 428
287 1 430 431
288 1 430 432
289 1 433 435
290 1 433 434
291 1 436 438
292 1 436 437
293 1 439 441
294 1 439 440
295 1 442 444
296 1 442 443
297 1 445 447
298 1 445 446
299 1 448 449
300 1 448 450
301 1 451 452
302 1 451 453
303 1 454 455
304 1 454 456
305 1 457 459
306 1 457 458
307 1 460 461
308 1 460 462
309 1 463 464
310 1 463 465
311 1 466 468
312 1 466 467
313 1 469 471
314 1 469 470
315 1 472 474
316 1 472 473
317 1 475 476
318 1 475 477
319 1 478 479
320 1 478 480
321 1 481 482
322 1 481 483
323 1 484 486
324 1 484 485
325 1 487 489
326 1 487 488
327 1 490 492
328 1 490 491
329 1 493 494
330 1 493 495
331 1 496 497
332 1 496 498
333 1 499 500
334 1 499 501
335 1 502 504
336 1 502 503
337 1 505 506
338 1 505 507
339 1 508 509
340 1 508 510
341 1 511 512
342 1 511 513
343 1 514 516
344 1 514 515
345 1 517 519
346 1 517 518
347 1 520 522
348 1 520 521
349 1 523 524
350 1 523 525
351 1 526 527
352 1 526 528
353 1 529 530
354 1 529 531
355 1 532 534
356 1 532 533
357 1 535 536
358 1 535 537
359 1 538 540
360 1 538 539
361 1 541 543
362 1 541 542
363 1 544 545
364 1 544 546
365 1 547 548
366 1 547 549
367 1 550 552
368 1 550 551
369 1 553 554
370 1 553 555
371 1 556 558
372 1 556 557
373 1 559 560
374 1 559 561
375 1 562 564
376 1 562 563
377 1 565 567
378 1 565 566
379 1 568 570
380 1 568 569
381 1 571 573
382 1 571 572
383 1 574 576
384 1 574 575
385 1 577 579
386 1 577 578
387 1 580 582
388 1 580 581
389 1 583 584
390 1 583 585
391 1 586 588
392 1 586 587
393 1 589 591
394 1 589 590
395 1 592 593
396 1 592 594
397 1 595 596
398 1 595 597
399 1 598 600
400 1 598 599
401 1 601 603
402 1 601 602
403 1 604 606
404 1 604 605
405 1 607 609
406 1 607 608
407 1 610 611
408 1 610 612
409 1 613 615
410 1 613 614
411 1 616 618
412 1 616 617
413 1 619 620
414 1 619 621
415 1 622 623
416 1 622 624
417 1 625 627
418 1 625 626
419 1 628 629
420 1 628 630
421 1 631 633
422 1 631 632
423 1 634 636
424 1 634 635
425 1 637 639
426 1 637 638
427 1 640 642
428 1 640 641
429 1 643 644
430 1 643 645
431 1 646 648
432 1 646 647
433 1 649 650
434 1 649 651
435 1 652 654
436 1 652 653
437 1 655 656
438 1 655 657
439 1 658 659
440 1 658 660
441 1 661 662
442 1 661 663
443 1 664 665
444 1 664 666
445 1 667 669
446 1 667 668
447 1 670 672
448 1 670 671
449 1 673 675
450 1 673 674
451 1 676 677
452 1 676 678
453 1 679 680
454 1 679 681
455 1 682 684
456 1 682 683
457 1 685 687
458 1 685 686
459 1 688 690
460 1 688 689
461 1 691 692
462 1 691 693
463 1 694 695
464 1 694 696
465 1 697 699
466 1 697 698
467 1 700 701
468 1 700 702
469 1 703 704
470 1 703 705
471 1 706 707
472 1 706 708
473 1 709 710
474 1 709 711
475 1 712 714
476 1 712 713
477 1 715 717
478 1 715 716
479 1 718 719
480 1 718 720
481 1 721 722
482 1 721 723
483 1 724 726
484 1 724 725
485 1 727 728
486 1 727 729
487 1 730 731
488 1 730 732
489 1 733 734
490 1 733 735
491 1 736 737
492 1 736 738
493 1 739 740
494 1 739 741
495 1 742 744
496 1 742 743
497 1 745 746
498 1 745 747
499 1 748 750
500 1 748 749
501 1 751 752
502 1 751 753
503 1 754 756
504 1 754 755
505 1 757 758
506 1 757 759
507 1 760 761
508 1 760 762
509 1 763 765
510 1 763 764
511 1 766 767
512 1 766 768
513 1 769 771
514 1 769 770
515 1 772 774
516 1 772 773
517 1 775 776
518 1 775 777
519 1 778 779
520 1 778 780
521 1 781 782
522 1 781 783
523 1 784 785
524 1 784 786
525 1 787 789
526 1 787 788
527 1 790 791
528 1 790 792
529 1 793 794
530 1 793 795
531 1 796 798
532 1 796 797
533 1 799 801
534 1 799 800
535 1 802 804
536 1 802 803
537 1 805 806
538 1 805 807
539 1 808 810
540 1 808 809
541 1 811 813
542 1 811 812
543 1 814 815
544 1 814 816
545 1 817 819
546 1 817 818
547 1 820 822
548 1 820 821
549 1 823 824
550 1 823 825
551 1 826 828
552 1 826 827
553 1 829 831
554 1 829 830
555 1 832 834
556 1 832 833
557 1 835 837
558 1 835 836
559 1 838 839
560 1 838 840
561 1 841 842
562 1 841 843
563 1 844 846
564 1 844 845
565 1 847 849
566 1 847 848
567 1 850 852
568 1 850 851
569 1 853 855
570 1 853 854
571 1 856 857
572 1 856 858
573 1 859 860
574 1 859 861
575 1 862 864
576 1 862 863
577 1 865 866
578 1 865 867
579 1 868 869
580 1 868 870
581 1 871 873
582 1 871 872
583 1 874 875
584 1 874 876
585 1 877 879
586 1 877 878
587 1 880 882
588 1 880 881
589 1 883 884
590 1 883 885
591 1 886 887
592 1 886 888
593 1 889 891
594 1 889 890
595 1 892 893
596 1 892 894
597 1 895 897
598 1 895 896
599 1 898 899
600 1 898 900
601 1 901 903
602 1 901 902
603 1 904 905
604 1 904 906
605 1 907 908
606 1 907 909
607 1 910 911
608 1 910 912
609 1 913 914
610 1 913 915
611 1 916 917
612 1 916 918
613 1 919 920
614 1 919 921
615 1 922 924
616 1 922 923
617 1 925 926
618 1 925 927
619 1 928 930
620 1 928 929
621 1 931 933
622 1 931 932
623 1 934 936
624 1 934 935
625 1 937 939
626 1 937 938
627 1 940 941
628 1 940 942
629 1 943 944
630 1 943 945
631 1 946 948
632 1 946 947
633 1 949 950
634 1 949 951
635 1 952 954
636 1 952 953
637 1 955 957
638 1 955 956
639 1 958 960
640 1 958 959
641 1 961 962
642 1 961 963
643 1 964 966
644 1 964 965
645 1 967 969
646 1 967 968
647 1 970 971
648 1 970 972
649 1 973 974
650 1 973 975
651 1 976 978
652 1 976 977
653 1 979 981
654 1 979 980
655 1 982 984
656 1 982 983
657 1 985 987
658 1 985 986
659 1 988 990
660 1 988 989
661 1 991 993
662 1 991 992
663 1 994 995
664 1 994 996
665 1 997 998
666 1 997 999
667 1 1000 1001
668 1 1000 1002
669 1 1003 1004
670 1 1003 1005
671 1 1006 1008
672 1 1006 1007
673 1 1009 1010
674 1 1009 1011
675 1 1012 1014
676 1 1012 1013
677 1 1015 1016
678 1 1015 1017
679 1 1018 1019
680 1 1018 1020
681 1 1021 1022
682 1 1021 1023
683 1 1024 1026
684 1 1024 1025
685 1 1027 1029
686 1 1027 1028
687 1 1030 1031
688 1 1030 1032
689 1 1033 1035
690 1 1033 1034
691 1 1036 1037
692 1 1036 1038
693 1 1039 1040
694 1 1039 1041
695 1 1042 1044
696 1 1042 1043
697 1 1045 1047
698 1 1045 1046
699 1 1048 1049
700 1 1048 1050
701 1 1051 1053
702 1 1051 1052
703 1 1054 1055
704 1 1054 1056
705 1 1057 1059
706 1 1057 1058
707 1 1060 1061
708 1 1060 1062
709 1 1063 1065
710 1 1063 1064
711 1 1066 1068
712 1 1066 1067
713 1 1069 1070
714 1 1069 1071
715 1 1072 1073
716 1 1072 1074
717 1 1075 1076
718 1 1075 1077
719 1 1078 1079
720 1 1078 1080
721 1 1081 1082
722 1 1081 1083
723 1 1084 1086
724 1 1084 1085
725 1 1087 1088
726 1 1087 1089
727 1 1090 1092
728 1 1090 1091
729 1 1093 1094
730 1 1093 1095
731 1 1096 1097
732 1 1096 1098
733 1 1099 1101
734 1 1099 1100
735 1 1102 1103
736 1 1102 1104
737 1 1105 1106
738 1 1105 1107
739 1 1108 1110
740 1 1108 1109
741 1 1111 1113
742 1 1111 1112
743 1 1114 1115
744 1 1114 1116
745 1 1117 1119
746 1 1117 1118
747 1 1120 1121
748 1 1120 1122
749 1 1123 1124
750 1 1123 1125
751 1 1126 1127
752 1 1126 1128
753 1 1129 1130
754 1 1129 1131
755 1 1132 1134
756 1 1132 1133
757 1 1135 1137
758 1 1135 1136
759 1 1138 1140
760 1 1138 1139
761 1 1141 1142
762 1 1141 1143
763 1 1144 1146
764 1 1144 1145
765 1 1147 1149
766 1 1147 1148
767 1 1150 1152
768 1 1150 1151
769 1 1153 1155
770 1 1153 1154
771 1 1156 1158
772 1 1156 1157
773 1 1159 1161
774 1 1159 1160
775 1 1162 1164
776 1 1162 1163
777 1 1165 1167
778 1 1165 1166
779 1 1168 1169
780 1 1168 1170
781 1 1171 1172
782 1 1171 1173
783 1 1174 1176
784 1 1174 1175
785 1 1177 1179
786 1 1177 1178
787 1 1180 1182
788 1 1180 1181
789 1 1183 1184
790 1 1183 1185
791 1 1186 1187
792 1 1186 1188
793 1 1189 1190
794 1 1189 1191
795 1 1192 1194
796 1 1192 1193
797 1 1195 1197
798 1 1195 1196
799 1 1198 1199
800 1 1198 1200
801 1 1201 1202
802 1 1201 1203
803 1 1204 1206
804 1 1204 1205
805 1 1207 1208
806 1 1207 1209
807 1 1210 1212
808 1 1210 1211
809 1 1213 1215
810 1 1213 1214
811 1 1216 1218
812 1 1216 1217
813 1 1219 1220
814 1 1219 1221
815 1 1222 1224
816 1 1222 1223
817 1 1225 1226
818 1 1225 1227
819 1 1228 1229
820 1 1228 1230
821 1 1231 1233
822 1 1231 1232
823 1 1234 1235
824 1 1234 1236
825 1 1237 1239
826 1 1237 1238
827 1 1240 1241
828 1 1240 1242
829 1 1243 1245
830 1 1243 1244
831 1 1246 1248
832 1 1246 1247
833 1 1249 1250
834 1 1249 1251
835 1 1252 1253
836 1 1252 1254
837 1 1255 1257
838 1 1255 1256
839 1 1258 1260
840 1 1258 1259
841 1 1261 1262
842 1 1261 1263
843 1 1264 1265
844 1 1264 1266
845 1 1267 1269
846 1 1267 1268
847 1 1270 1272
848 1 1270 1271
849 1 1273 1274
850 1 1273 1275
851 1 1276 1277
852 1 1276 1278
853 1 1279 1280
854 1 1279 1281
855 1 1282 1284
856 1 1282 1283
857 1 1285 1286
858 1 1285 1287
859 1 1288 1290
860 1 1288 1289
861 1 1291 1293
862 1 1291 1292
863 1 1294 1296
864 1 1294 1295
865 1 1297 1299
866 1 1297 1298
867 1 1300 1302
868 1 1300 1301
869 1 1303 1304
870 1 1303 1305
871 1 1306 1308
872 1 1306 1307
873 1 1309 1310
874 1 1309 1311
875 1 1312 1313
876 1 1312 1314
877 1 1315 1317
878 1 1315 1316
879 1 1318 1319
880 1 1318 1320
881 1 1321 1323
882 1 1321 1322
883 1 1324 1325
884 1 1324 1326
885 1 1327 1329
886 1 1327 1328
887 1 1330 1332
888 1 1330 1331
889 1 1333 1334
890 1 1333 1335
891 1 1336 1338
892 1 1336 1337
893 1 1339 1341
894 1 1339 1340
895 1 1342 1343
896 1 1342 1344
897 1 1345 1347
898 1 1345 1346
899 1 1348 1349
900 1 1348 1350
901 1 1351 1353
902 1 1351 1352
903 1 1354 1355
904 1 1354 1356
905 1 1357 1359
906 1 1357 1358
907 1 1360 1362
908 1 1360 1361
909 1 1363 1364
910 1 1363 1365
911 1 1366 1367
912 1 1366 1368
913 1 1369 1371
914 1 1369 1370
915 1 1372 1373
916 1 1372 1374
917 1 1375 1376
918 1 1375 1377
919 1 1378 1380
920 1 1378 1379
921 1 1381 1382
922 1 1381 1383
923 1 1384 1385
924 1 1384 1386
925 1 1387 1389
926 1 1387 1388
927 1 1390 1391
928 1 1390 1392
929 1 1393 1395
930 1 1393 1394
931 1 1396 1397
932 1 1396 1398
933 1 1399 1400
934 1 1399 1401
935 1 1402 1404
936 1 1402 1403
937 1 1405 1406
938 1 1405 1407
939 1 1408 1410
940 1 1408 1409
941 1 1411 1413
942 1 1411 1412
943 1 1414 1416
944 1 1414 1415
945 1 1417 1418
946 1 1417 1419
947 1 1420 1422
948 1 1420 1421
949 1 1423 1424
950 1 1423 1425
951 1 1426 1427
952 1 1426 1428
953 1 1429 1431
954 1 1429 1430
955 1 1432 1433
956 1 1432 1434
957 1 1435 1437
958 1 1435 1436
959 1 1438 1440
960 1 1438 1439
961 1 1441 1443
962 1 1441 1442
963 1 1444 1445
964 1 1444 1446
965 1 1447 1449
966 1 1447 1448
967 1 1450 1451
968 1 1450 1452
969 1 1453 1454
970 1 1453 1455
971 1 1456 1457
972 1 1456 1458
973 1 1459 1461
974 1 1459 1460
975 1 1462 1464
976 1 1462 1463
977 1 1465 1466
978 1 1465 1467
979 1 1468 1469
980 1 1468 1470
981 1 1471 1472
982 1 1471 1473
983 1 1474 1476
984 1 1474 1475
985 1 1477 1479
986 1 1477 1478
987 1 1480 1482
988 1 1480 1481
989 1 1483 1484
990 1 1483 1485
991 1 1486 1488
992 1 1486 1487
993 1 1489 1490
994 1 1489 1491
995 1 1492 1494
996 1 1492 1493
997 1 1495 1496
998 1 1495 1497
999 1 1498 1499
1000 1 1498 1500
1001 1 1501 1503
1002 1 1501 1502
1003 1 1504 1505
1004 1 1504 1506
1005 1 1507 1508
1006 1 1507 1509
1007 1 1510 1511
1008 1 1510 1512
1009 1 1513 1515
1010 1 1513 1514
1011 1 1516 1518
1012 1 1516 1517
1013 1 1519 1520
1014 1 1519 1521
1015 1 1522 1524
1016 1 1522 1523
1017 1 1525 1526
1018 1 1525 1527
1019 1 1528 1530
1020 1 1528 1529
1021 1 1531 1533
1022 1 1531 1532
1023 1 1534 1536
1024 1 1534 1535
1025 1 1537 1539
1026 1 1537 1538
1027 1 1540 1542
1028 1 1540 1541
1029 1 1543 1544
1030 1 1543 1545
1031 1 1546 1547
1032 1 1546 1548
1033 1 1549 1551
1034 1 1549 1550
1035 1 1552 1554
1036 1 1552 1553
1037 1 1555 1556
1038 1 1555 1557
1039 1 1558 1559
1040 1 1558 1560
1041 1 1561 1562
1042 1 1561 1563
1043 1 1564 1566
1044 1 1564 1565
1045 1 1567 1568
1046 1 1567 1569
1047 1 1570 1572
1048 1 1570 1571
1049 1 1573 1575
1050 1 1573 1574
1051 1 1576 1577
1052 1 1576 1578
1053 1 1579 1581
1054 1 1579 1580
1055 1 1582 1584
1056 1 1582 1583
1057 1 1585 1586
1058 1 1585 1587
1059 1 1588 1590
1060 1 1588 1589
1061 1 1591 1592
1062 1 1591 1593
1063 1 1594 1595
1064 1 1594 1596
1065 1 1597 1599
1066 1 1597 1598
1067 1 1600 1602
1068 1 1600 1601
1069 1 1603 1605
1070 1 1603 1604
1071 1 1606 1607
1072 1 1606 1608
1073 1 1609 1610
1074 1 1609 1611
1075 1 1612 1613
1076 1 1612 1614
1077 1 1615 1616
1078 1 1615 1617
1079 1 1618 1620
1080 1 1618 1619
1081 1 1621 1623
1082 1 1621 1622
1083 1 1624 1626
1084 1 1624 1625
1085 1 1627 1628
1086 1 1627 1629
1087 1 1630 1632
1088 1 1630 1631
1089 1 1633 1635
1090 1 1633 1634
1091 1 1636 1638
1092 1 1636 1637
1093 1 1639 1640
1094 1 1639 1641
1095 1 1642 1644
1096 1 1642 1643
1097 1 1645 1647
1098 1 1645 1646
1099 1 1648 1650
1100 1 1648 1649
1101 1 1651 1652
1102 1 1651 1653
1103 1 1654 1655
1104 1 1654 1656
1105 1 1657 1659
1106 1 1657 1658
1107 1 1660 1662
1108 1 1660 1661
1109 1 1663 1664
1110 1 1663 1665
1111 1 1666 1668
1112 1 1666 1667
1113 1 1669 1670
1114 1 1669 1671
1115 1 1672 1674
1116 1 1672 1673
1117 1 1675 1677
1118 1 1675 1676
1119 1 1678 1680
1120 1 1678 1679
1121 1 1681 1683
1122 1 1681 1682
1123 1 1684 1686
1124 1 1684 1685
1125 1 1687 1689
1126 1 1687 1688
1127 1 1690 1692
1128 1 1690 1691
1129 1 1693 1695
1130 1 1693 1694
1131 1 1696 1697
1132 1 1696 1698
1133 1 1699 1701
1134 1 1699 1700
1135 1 1702 1703
1136 1 1702 1704
1137 1 1705 1707
1138 1 1705 1706
1139 1 1708 1710
1140 1 1708 1709
1141 1 1711 1712
1142 1 1711 1713
1143 1 1714 1716
1144 1 1714 1715
1145 1 1717 1719
1146 1 1717 1718
1147 1 1720 1722
1148 1 1720 1721
1149 1 1723 1724
1150 1 1723 1725
1151 1 1726 1728
1152 1 1726 1727
1153 1 1729 1730
1154 1 1729 1731
1155 1 1732 1733
1156 1 1732 1734
1157 1 1735 1737
1158 1 1735 1736
1159 1 1738 1739
1160 1 1738 1740
1161 1 1741 1742
1162 1 1741 1743
1163 1 1744 1746
1164 1 1744 1745
1165 1 1747 1748
1166 1 1747 1749
1167 1 1750 1751
1168 1 1750 1752
1169 1 1753 1754
1170 1 1753 1755
1171 1 1756 1757
1172 1 1756 1758
1173 1 1759 1760
1174 1 1759 1761
1175 1 1762 1764
1176 1 1762 1763
1177 1 1765 1767
1178 1 1765 1766
1179 1 1768 1769
1180 1 1768 1770
1181 1 1771 1772
1182 1 1771 1773
1183 1 1774 1775
1184 1 1774 1776
1185 1 1777 1779
1186 1 1777 1778
1187 1 1780 1782
1188 1 1780 1781
1189 1 1783 1784
1190 1 1783 1785
1191 1 1786 1788
1192 1 1786 1787
1193 1 1789 1791
1194 1 1789 1790
1195 1 1792 1794
1196 1 1792 1793
1197 1 1795 1796
1198 1 1795 1797
1199 1 1798 1799
1200 1 1798 1800
1201 1 1801 1802
1202 1 1801 1803
1203 1 1804 1806
1204 1 1804 1805
1205 1 1807 1808
1206 1 1807 1809
1207 1 1810 1811
1208 1 1810 1812
1209 1 1813 1814
1210 1 1813 1815
1211 1 1816 1818
1212 1 1816 1817
1213 1 1819 1820
1214 1 1819 1821
1215 1 1822 1824
1216 1 1822 1823
1217 1 1825 1826
1218 1 1825 1827
1219 1 1828 1830
1220 1 1828 1829
1221 1 1831 1833
1222 1 1831 1832
1223 1 1834 1836
1224 1 1834 1835
1225 1 1837 1838
1226 1 1837 1839
1227 1 1840 1842
1228 1 1840 1841
1229 1 1843 1845
1230 1 1843 1844
1231 1 1846 1847
1232 1 1846 1848
1233 1 1849 1851
1234 1 1849 1850
1235 1 1852 1854
1236 1 1852 1853
1237 1 1855 1857
1238 1 1855 1856
1239 1 1858 1859
1240 1 1858 1860
1241 1 1861 1863
1242 1 1861 1862
1243 1 1864 1865
1244 1 1864 1866
1245 1 1867 1869
1246 1 1867 1868
1247 1 1870 1872
1248 1 1870 1871
1249 1 1873 1875
1250 1 1873 1874
1251 1 1876 1878
1252 1 1876 1877
1253 1 1879 1881
1254 1 1879 1880
1255 1 1882 1884
1256 1 1882 1883
1257 1 1885 1887
1258 1 1885 1886
1259 1 1888 1889
1260 1 1888 1890
1261 1 1891 1892
1262 1 1891 1893
1263 1 1894 1895
1264 1 1894 1896
1265 1 1897 1899
1266 1 1897 1898
1267 1 1900 1902
1268 1 1900 1901
1269 1 1903 1905
1270 1 1903 1904
1271 1 1906 1908
1272 1 1906 1907
1273 1 1909 1911
1274 1 1909 1910
1275 1 1912 1913
1276 1 1912 1914
1277 1 1915 1917
1278 1 1915 1916
1279 1 1918 1920
1280 1 1918 1919
1281 1 1921 1922
1282 1 1921 1923
1283 1 1924 1926
1284 1 1924 1925
1285 1 1927 1928
1286 1 1927 1929
1287 1 1930 1931
1288 1 1930 1932
1289 1 1933 1935
1290 1 1933 1934
1291 1 1936 1938
1292 1 1936 1937
1293 1 1939 1941
1294 1 1939 1940
1295 1 1942 1943
1296 1 1942 1944
1297 1 1945 1946
1298 1 1945 1947
1299 1 1948 1950
1300 1 1948 1949
1301 1 1951 1953
1302 1 1951 1952
1303 1 1954 1956
1304 1 1954 1955
1305 1 1957 1959
1306 1 1957 1958
1307 1 1960 1961
1308 1 1960 1962
1309 1 1963 1965
1310 1 1963 1964
1311 1 1966 1968
1312 1 1966 1967
1313 1 1969 1970
1314 1 1969 1971
1315 1 1972 1973
1316 1 1972 1974
1317 1 1975 1977
1318 1 1975 1976
1319 1 1978 1979
1320 1 1978 1980
1321 1 1981 1982
1322 1 1981 1983
1323 1 1984 1986
1324 1 1984 1985
1325 1 1987 1988
1326 1 1987 1989
1327 1 1990 1992
1328 1 1990 1991
1329 1 1993 1995
1330 1 1993 1994
1331 1 1996 1998
1332 1 1996 1997
1333 1 1999 2000
1334 1 1999 2001
1335 1 2002 2004
1336 1 2002 2003
1337 1 2005 2006
1338 1 2005 2007
1339 1 2008 2009
1340 1 2008 2010
1341 1 2011 2013
1342 1 2011 2012
1343 1 2014 2016
1344 1 2014 2015
1345 1 2017 2019
1346 1 2017 2018
1347 1 2020 2022
1348 1 2020 2021
1349 1 2023 2024
1350 1 2023 2025
1351 1 2026 2028
1352 1 2026 2027
1353 1 2029 2031
1354 1 2029 2030
1355 1 2032 2033
1356 1 2032 2034
1357 1 2035 2037
1358 1 2035 2036
1359 1 2038 2040
1360 1 2038 2039
1361 1 2041 2042
1362 1 2041 2043
1363 1 2044 2045
1364 1 2044 2046
1365 1 2047 2049
1366 1 2047 2048
1367 1 2050 2052
1368 1 2050 2051
1369 1 2053 2054
1370 1 2053 2055
1371 1 2056 2057
1372 1 2056 2058
1373 1 2059 2061
1374 1 2059 2060
1375 1 2062 2063
1376 1 2062 2064
1377 1 2065 2067
1378 1 2065 2066
1379 1 2068 2070
1380 1 2068 2069
1381 1 2071 2072
1382 1 2071 2073
1383 1 2074 2076
1384 1 2074 2075
1385 1 2077 2079
1386 1 2077 2078
1387 1 2080 2082
1388 1 2080 2081
1389 1 2083 2085
1390 1 2083 2084
1391 1 2086 2087
1392 1 2086 2088
1393 1 2089 2091
1394 1 2089 2090
1395 1 2092 2094
1396 1 2092 2093
1397 1 2095 2097
1398 1 2095 2096
1399 1 2098 2099
1400 1 2098 2100
1401 1 2101 2103
1402 1 2101 2102
1403 1 2104 2106
1404 1 2104 2105
1405 1 2107 2109
1406 1 2107 2108
1407 1 2110 2111
1408 1 2110 2112
1409 1 2113 2115
1410 1 2113 2114
1411 1 2116 2118
1412 1 2116 2117
1413 1 2119 2121
1414 1 2119 2120
1415 1 2122 2124
1416 1 2122 2123
1417 1 2125 2127
1418 1 2125 2126
1419 1 2128 2130
1420 1 2128 2129
1421 1 2131 2132
1422 1 2131 2133
1423 1 2134 2136
1424 1 2134 2135
1425 1 2137 2138
1426 1 2137 2139
1427 1 2140 2142
1428 1 2140 2141
1429 1 2143 2144
1430 1 2143 2145
1431 1 2146 2148
1432 1 2146 2147
1433 1 2149 2151
1434 1 2149 2150
1435 1 2152 2154
1436 1 2152 2153
1437 1 2155 2156
1438 1 2155 2157
1439 1 2158 2159
1440 1 2158 2160
1441 1 2161 2163
1442 1 2161 2162
1443 1 2164 2166
1444 1 2164 2165
1445 1 2167 2168
1446 1 2167 2169
1447 1 2170 2172
1448 1 2170 2171
1449 1 2173 2175
1450 1 2173 2174
1451 1 2176 2177
1452 1 2176 2178
1453 1 2179 2181
1454 1 2179 2180
1455 1 2182 2183
1456 1 2182 2184
1457 1 2185 2187
1458 1 2185 2186
1459 1 2188 2190
1460 1 2188 2189
1461 1 2191 2193
1462 1 2191 2192
1463 1 2194 2196
1464 1 2194 2195
1465 1 2197 2199
1466 1 2197 2198
1467 1 2200 2202
1468 1 2200 2201
1469 1 2203 2204
1470 1 2203 2205
1471 1 2206 2208
1472 1 2206 2207
1473 1 2209 2210
1474 1 2209 2211
1475 1 2212 2213
1476 1 2212 2214
1477 1 2215 2216
1478 1 2215 2217
1479 1 2218 2220
1480 1 2218 2219
1481 1 2221 2222
1482 1 2221 2223
1483 1 2224 2225
1484 1 2224 2226
1485 1 2227 2228
1486 1 2227 2229
1487 1 2230 2231
1488 1 2230 2232
1489 1 2233 2234
1490 1 2233 2235
1491 1 2236 2238
1492 1 2236 2237
1493 1 2239 2240
1494 1 2239 2241
1495 1 2242 2243
1496 1 2242 2244
1497 1 2245 2246
1498 1 2245 2247
1499 1 2248 2249
1500 1 2248 2250
1501 1 2251 2253
1502 1 2251 2252
1503 1 2254 2256
1504 1 2254 2255
1505 1 2257 2259
1506 1 2257 2258
1507 1 2260 2261
1508 1 2260 2262
1509 1 2263 2264
1510 1 2263 2265
1511 1 2266 2267
1512 1 2266 2268
1513 1 2269 2270
1514 1 2269 2271
1515 1 2272 2274
1516 1 2272 2273
1517 1 2275 2277
1518 1 2275 2276
1519 1 2278 2280
1520 1 2278 2279
1521 1 2281 2282
1522 1 2281 2283
1523 1 2284 2285
1524 1 2284 2286
1525 1 2287 2289
1526 1 2287 2288
1527 1 2290 2292
1528 1 2290 2291
1529 1 2293 2295
1530 1 2293 2294
1531 1 2296 2298
1532 1 2296 2297
1533 1 2299 2300
1534 1 2299 2301
1535 1 2302 2304
1536 1 2302 2303
1537 1 2305 2307
1538 1 2305 2306
1539 1 2308 2310
1540 1 2308 2309
1541 1 2311 2313
1542 1 2311 2312
1543 1 2314 2315
1544 1 2314 2316
1545 1 2317 2318
1546 1 2317 2319
1547 1 2320 2321
1548 1 2320 2322
1549 1 2323 2325
1550 1 2323 2324
1551 1 2326 2328
1552 1 2326 2327
1553 1 2329 2331
1554 1 2329 2330
1555 1 2332 2334
1556 1 2332 2333
1557 1 2335 2337
1558 1 2335 2336
1559 1 2338 2340
1560 1 2338 2339
1561 1 2341 2343
1562 1 2341 2342
1563 1 2344 2346
1564 1 2344 2345
1565 1 2347 2348
1566 1 2347 2349
1567 1 2350 2352
1568 1 2350 2351
1569 1 2353 2355
1570 1 2353 2354
1571 1 2356 2358
1572 1 2356 2357
1573 1 2359 2360
1574 1 2359 2361
1575 1 2362 2363
1576 1 2362 2364
1577 1 2365 2367
1578 1 2365 2366
1579 1 2368 2370
1580 1 2368 2369
1581 1 2371 2372
1582 1 2371 2373
1583 1 2374 2376
1584 1 2374 2375
1585 1 2377 2378
1586 1 2377 2379
1587 1 2380 2381
1588 1 2380 2382
1589 1 2383 2384
1590 1 2383 2385
1591 1 2386 2387
1592 1 2386 2388
1593 1 2389 2390
1594 1 2389 2391
1595 1 2392 2393
1596 1 2392 2394
1597 1 2395 2396
1598 1 2395 2397
1599 1 2398 2400
1600 1 2398 2399
1601 1 2401 2402
1602 1 2401 2403
1603 1 2404 2406
1604 1 2404 2405
1605 1 2407 2409
1606 1 2407 2408
1607 1 2410 2411
1608 1 2410 2412
1609 1 2413 2415
1610 1 2413 2414
1611 1 2416 2417
1612 1 2416 2418
1613 1 2419 2420
1614 1 2419 2421
1615 1 2422 2424
1616 1 2422 2423
1617 1 2425 2427
1618 1 2425 2426
1619 1 2428 2429
1620 1 2428 2430
1621 1 2431 2433
1622 1 2431 2432
1623 1 2434 2436
1624 1 2434 2435
1625 1 2437 2439
1626 1 2437 2438
1627 1 2440 2442
1628 1 2440 2441
1629 1 2443 2444
1630 1 2443 2445
1631 1 2446 2448
1632 1 2446 2447
1633 1 2449 2451
1634 1 2449 2450
1635 1 2452 2453
1636 1 2452 2454
1637 1 2455 2457
1638 1 2455 2456
1639 1 2458 2459
1640 1 2458 2460
1641 1 2461 2463
1642 1 2461 2462
1643 1 2464 2466
1644 1 2464 2465
1645 1 2467 2468
1646 1 2467 2469
1647 1 2470 2471
1648 1 2470 2472
1649 1 2473 2475
1650 1 2473 2474
1651 1 2476 2478
1652 1 2476 2477
1653 1 2479 2480
1654 1 2479 2481
1655 1 2482 2483
1656 1 2482 2484
1657 1 2485 2487
1658 1 2485 2486
1659 1 2488 2489
1660 1 2488 2490
1661 1 2491 2492
1662 1 2491 2493
1663 1 2494 2495
1664 1 2494 2496
1665 1 2497 2498
1666 1 2497 2499
1667 1 2500 2501
1668 1 2500 2502
1669 1 2503 2505
1670 1 2503 2504
1671 1 2506 2507
1672 1 2506 2508
1673 1 2509 2510
1674 1 2509 2511
1675 1 2512 2514
1676 1 2512 2513
1677 1 2515 2517
1678 1 2515 2516
1679 1 2518 2520
1680 1 2518 2519
1681 1 2521 2522
1682 1 2521 2523
1683 1 2524 2525
1684 1 2524 2526
1685 1 2527 2528
1686 1 2527 2529
1687 1 2530 2531
1688 1 2530 2532
1689 1 2533 2534
1690 1 2533 2535
1691 1 2536 2538
1692 1 2536 2537
1693 1 2539 2541
1694 1 2539 2540
1695 1 2542 2543
1696 1 2542 2544
1697 1 2545 2547
1698 1 2545 2546
1699 1 2548 2549
1700 1 2548 2550
1701 1 2551 2552
1702 1 2551 2553
1703 1 2554 2556
1704 1 2554 2555
1705 1 2557 2559
1706 1 2557 2558
1707 1 2560 2562
1708 1 2560 2561
1709 1 2563 2565
1710 1 2563 2564
1711 1 2566 2567
1712 1 2566 2568
1713 1 2569 2571
1714 1 2569 2570
1715 1 2572 2573
1716 1 2572 2574
1717 1 2575 2577
1718 1 2575 2576
1719 1 2578 2579
1720 1 2578 2580
1721 1 2581 2582
1722 1 2581 2583
1723 1 2584 2585
1724 1 2584 2586
1725 1 2587 2588
1726 1 2587 2589
1727 1 2590 2591
1728 1 2590 2592
1729 1 2593 2595
1730 1 2593 2594
1731 1 2596 2598
1732 1 2596 2597
1733 1 2599 2601
1734 1 2599 2600
1735 1 2602 2603
1736 1 2602 2604
1737 1 2605 2606
1738 1 2605 2607
1739 1 2608 2610
1740 1 2608 2609
1741 1 2611 2612
1742 1 2611 2613
1743 1 2614 2615
1744 1 2614 2616
1745 1 2617 2618
1746 1 2617 2619
1747 1 2620 2622
1748 1 2620 2621
1749 1 2623 2624
1750 1 2623 2625
1751 1 2626 2627
1752 1 2626 2628
1753 1 2629 2631
1754 1 2629 2630
1755 1 2632 2633
1756 1 2632 2634
1757 1 2635 2637
1758 1 2635 2636
1759 1 2638 2640
1760 1 2638 2639
1761 1 2641 2642
1762 1 2641 2643
1763 1 2644 2645
1764 1 2644 2646
1765 1 2647 2648
1766 1 2647 2649
1767 1 2650 2652
1768 1 2650 2651
1769 1 2653 2655
1770 1 2653 2654
1771 1 2656 2657
1772 1 2656 2658
1773 1 2659 2661
1774 1 2659 2660
1775 1 2662 2663
1776 1 2662 2664
1777 1 2665 2666
1778 1 2665 2667
1779 1 2668 2669
1780 1 2668 2670
1781 1 2671 2672
1782 1 2671 2673
1783 1 2674 2676
1784 1 2674 2675
1785 1 2677 2678
1786 1 2677 2679
1787 1 2680 2682
1788 1 2680 2681
1789 1 2683 2685
1790 1 2683 2684
1791 1 2686 2687
1792 1 2686 2688
1793 1 2689 2691
1794 1 2689 2690
1795 1 2692 2694
1796 1 2692 2693
1797 1 2695 2696
1798 1 2695 2697
1799 1 2698 2699
1800 1 2698 2700
1801 1 2701 2703
1802 1 2701 2702
1803 1 2704 2706
1804 1 2704 2705
1805 1 2707 2708
1806 1 2707 2709
1807 1 2710 2712
1808 1 2710 2711
1809 1 2713 2715
1810 1 2713 2714
1811 1 2716 2717
1812 1 2716 2718
1813 1 2719 2721
1814 1 2719 2720
1815 1 2722 2724
1816 1 2722 2723
1817 1 2725 2727
1818 1 2725 2726
1819 1 2728 2730
1820 1 2728 2729
1821 1 2731 2733
1822 1 2731 2732
1823 1 2734 2735
1824 1 2734 2736
1825 1 2737 2739
1826 1 2737 2738
1827 1 2740 2742
1828 1 2740 2741
1829 1 2743 2745
1830 1 2743 2744
1831 1 2746 2747
1832 1 2746 2748
1833 1 2749 2751
1834 1 2749 2750
1835 1 2752 2754
1836 1 2752 2753
1837 1 2755 2757
1838 1 2755 2756
1839 1 2758 2759
1840 1 2758 2760
1841 1 2761 2763
1842 1 2761 2762
1843 1 2764 2765
1844 1 2764 2766
1845 1 2767 2769
1846 1 2767 2768
1847 1 2770 2772
1848 1 2770 2771
1849 1 2773 2774
1850 1 2773 2775
1851 1 2776 2777
1852 1 2776 2778
1853 1 2779 2780
1854 1 2779 2781
1855 1 2782 2784
1856 1 2782 2783
1857 1 2785 2786
1858 1 2785 2787
1859 1 2788 2790
1860 1 2788 2789
1861 1 2791 2793
1862 1 2791 2792
1863 1 2794 2796
1864 1 2794 2795
1865 1 2797 2798
1866 1 2797 2799
1867 1 2800 2801
1868 1 2800 2802
1869 1 2803 2805
1870 1 2803 2804
1871 1 2806 2807
1872 1 2806 2808
1873 1 2809 2810
1874 1 2809 2811
1875 1 2812 2813
1876 1 2812 2814
1877 1 2815 2817
1878 1 2815 2816
1879 1 2818 2820
1880 1 2818 2819
1881 1 2821 2823
1882 1 2821 2822
1883 1 2824 2825
1884 1 2824 2826
1885 1 2827 2829
1886 1 2827 2828
1887 1 2830 2831
1888 1 2830 2832
1889 1 2833 2834
1890 1 2833 2835
1891 1 2836 2838
1892 1 2836 2837
1893 1 2839 2840
1894 1 2839 2841
1895 1 2842 2843
1896 1 2842 2844
1897 1 2845 2847
1898 1 2845 2846
1899 1 2848 2850
1900 1 2848 2849
1901 1 2851 2853
1902 1 2851 2852
1903 1 2854 2856
1904 1 2854 2855
1905 1 2857 2859
1906 1 2857 2858
1907 1 2860 2862
1908 1 2860 2861
1909 1 2863 2865
1910 1 2863 2864
1911 1 2866 2867
1912 1 2866 2868
1913 1 2869 2871
1914 1 2869 2870
1915 1 2872 2874
1916 1 2872 2873
1917 1 2875 2877
1918 1 2875 2876
1919 1 2878 2880
1920 1 2878 2879
1921 1 2881 2883
1922 1 2881 2882
1923 1 2884 2886
1924 1 2884 2885
1925 1 2887 2889
1926 1 2887 2888
1927 1 2890 2892
1928 1 2890 2891
1929 1 2893 2894
1930 1 2893 2895
1931 1 2896 2897
1932 1 2896 2898
1933 1 2899 2901
1934 1 2899 2900
1935 1 2902 2903
1936 1 2902 2904
1937 1 2905 2907
1938 1 2905 2906
1939 1 2908 2909
1940 1 2908 2910
1941 1 2911 2912
1942 1 2911 2913
1943 1 2914 2915
1944 1 2914 2916
1945 1 2917 2918
1946 1 2917 2919
1947 1 2920 2921
1948 1 2920 2922
1949 1 2923 2925
1950 1 2923 2924
1951 1 2926 2928
1952 1 2926 2927
1953 1 2929 2930
1954 1 2929 2931
1955 1 2932 2934
1956 1 2932 2933
1957 1 2935 2937
1958 1 2935 2936
1959 1 2938 2939
1960 1 2938 2940
1961 1 2941 2943
1962 1 2941 2942
1963 1 2944 2945
1964 1 2944 2946
1965 1 2947 2948
1966 1 2947 2949
1967 1 2950 2951
1968 1 2950 2952
1969 1 2953 2955
1970 1 2953 2954
1971 1 2956 2958
1972 1 2956 2957
1973 1 2959 2961
1974 1 2959 2960
1975 1 2962 2963
1976 1 2962 2964
1977 1 2965 2967
1978 1 2965 2966
1979 1 2968 2969
1980 1 2968 2970
1981 1 2971 2973
1982 1 2971 2972
1983 1 2974 2976
1984 1 2974 2975
1985 1 2977 2978
1986 1 2977 2979
1987 1 2980 2982
1988 1 2980 2981
1989 1 2983 2984
1990 1 2983 2985
1991 1 2986 2988
1992 1 2986 2987
1993 1 2989 2990
1994 1 2989 2991
1995 1 2992 2994
1996 1 2992 2993
1997 1 2995 2996
1998 1 2995 2997
1999 1 2998 2999
2000 1 2998 3000
2001 1 3001 3002
2002 1 3001 3003
2003 1 3004 3005
2004 1 3004 3006
2005 1 3007 3008
2006 1 3007 3009
2007 1 3010 3012
2008 1 3010 3011
2009 1 3013 3014
2010 1 3013 3015
2011 1 3016 3018
2012 1 3016 3017
2013 1 3019 3021
2014 1 3019 3020
2015 1 3022 3023
2016 1 3022 3024
2017 1 3025 3027
2018 1 3025 3026
2019 1 3028 3030
2020 1 3028 3029
2021 1 3031 3032
2022 1 3031 3033
2023 1 3034 3036
2024 1 3034 3035
2025 1 3037 3039
2026 1 3037 3038
2027 1 3040 3041
2028 1 3040 3042
2029 1 3043 3044
2030 1 3043 3045
2031 1 3046 3048
2032 1 3046 3047
2033 1 3049 3051
2034 1 3049 3050
2035 1 3052 3053
2036 1 3052 3054
2037 1 3055 3056
2038 1 3055 3057
2039 1 3058 3060
2040 1 3058 3059
2041 1 3061 3063
2042 1 3061 3062
2043 1 3064 3066
2044 1 3064 3065
2045 1 3067 3069
2046 1 3067 3068
2047 1 3070 3071
2048 1 3070 3072

 Angles

1 1 2 1 3
2 1 5 4 6
3 1 8 7 9
4 1 11 10 12
5 1 14 13 15
6 1 17 16 18
7 1 20 19 21
8 1 23 22 24
9 1 26 25 27
10 1 29 28 30
11 1 32 31 33
12 1 35 34 36
13 1 38 37 39
14 1 41 40 42
15 1 44 43 45
16 1 47 46 48
17 1 50 49 51
18 1 53 52 54
19 1 56 55 57
20 1 59 58 60
21 1 62 61 63
22 1 65 64 66
23 1 68 67 69
24 1 71 70 72
25 1 74 73 75
26 1 77 76 78
27 1 80 79 81
28 1 83 82 84
29 1 86 85 87
30 1 89 88 90
31 1 92 91 93
32 1 95 94 96
33 1 98 97 99
34 1 101 100 102
35 1 104 103 105
36 1 107 106 108
37 1 110 109 111
38 1 113 112 114
39 1 116 115 117
40 1 119 118 120
41 1 122 121 123
42 1 125 124 126
43 1 128 127 129
44 1 131 130 132
45 1 134 133 135
46 1 137 136 138
47 1 140 139 141
48 1 143 142 144
49 1 146 145 147
50 1 149 148 150
51 1 152 151 153
52 1 155 154 156
53 1 158 157 159
54 1 161 160 162
55 1 164 163 165
56 1 167 166 168
57 1 170 169 171
58 1 173 172 174
59 1 176 175 177
60 1 179 178 180
61 1 182 181 183
62 1 185 184 186
63 1 188 187 189
64 1 191 190 192
65 1 194 193 195
66 1 197 196 198
67 1 200 199 201
68 1 203 202 204
69 1 206 205 207
70 1 209 208 210
71 1 212 211 213
72 1 215 214 216
73 1 218 217 219
74 1 221 220 222
75 1 224 223 225
76 1 227 226 228
77 1 230 229 231
78 1 233 232 234
79 1 236 235 237
80 1 239 238 240
81 1 242 241 243
82 1 245 244 246
83 1 248 247 249
84 1 251 250 252
85 1 254 253 255
86 1 257 256 258
87 1 260 259 261
88 1 263 262 264
89 1 266 265 267
90 1 269 268 270
91 1 272 271 273
92 1 275 274 276
93 1 278 277 279
94 1 281 280 282
95 1 284 283 285
96 1 287 286 288
97 1 290 289 291
98 1 293 292 294
99 1 296 295 297
100 1 299 298 300
101 1 302 301 303
102 1 305 304 306
103 1 308 307 309
104 1 311 310 312
105 1 314 313 315
106 1 317 316 318
107 1 320 319 321
108 1 323 322 324
109 1 326 325 327
110 1 329 328 330
111 1 332 331 333
112 1 335 334 336
113 1 338 337 339
114 1 341 340 342
115 1 344 343 345
116 1 347 346 348
117 1 350 349 351
118 1 353 352 354
119 1 356 355 357
120 1 359 358 360
121 1 362 361 363
122 1 365 364 366
123 1 368 367 369
124 1 371 370 372
125 1 374 373 375
126 1 377 376 378
127 1 380 379 381
128 1 383 382 384
129 1 386 385 387
130 1 389 388 390
131 1 392 391 393
132 1 395 394 396
133 1 398 397 399
134 1 401 400 402
135 1 404 403 405
136 1 407 406 408
137 1 410 409 411
138 1 413 412 414
139 1 416 415 417
140 1 419 418 420
141 1 422 421 423
142 1 425 424 426
143 1 428 427 429
144 1 431 430 432
145 1 434 433 435
146 1 437 436 438
147 1 440 439 441
148 1 443 442 444
149 1 446 445 447
150 1 449 448 450
151 1 452 451 453
152 1 455 454 456
153 1 458 457 459
154 1 461 460 462
155 1 464 463 465
156 1 467 466 468
157 1 470 469 471
158 1 473 472 474
159 1 476 475 477
160 1 479 478 480
161 1 482 481 483
162 1 485 484 486
163 1 488 487 489
164 1 491 490 492
165 1 494 493 495
166 1 497 496 498
167 1 500 499 501
168 1 503 502 504
169 1 506 505 507
170 1 509 508 510
171 1 512 511 513
172 1 515 514 516
173 1 518 517 519
174 1 521 520 522
175 1 524 523 525
176 1 527 526 528
177 1 530 529 531
178 1 533 532 534
179 1 536 535 537
180 1 539 538 540
181 1 542 541 543
182 1 545 544 546
183 1 548 547 549
184 1 551 550 552
185 1 554 553 555
186 1 557 556 558
187 1 560 559 561
188 1 563 562 564
189 1 566 565 567
190 1 569 568 570
191 1 572 571 573
192 1 575 574 576
193 1 578 577 579
194 1 581 580 582
195 1 584 583 585
196 1 587 586 588
197 1 590 589 591
198 1 593 592 594
199 1 596 595 597
200 1 599 598 600
201 1 602 601 603
202 1 605 604 606
203 1 608 607 609
204 1 611 610 612
205 1 614 613 615
206 1 617 616 618
207 1 620 619 621
208 1 623 622 624
209 1 626 625 627
210 1 629 628 630
211 1 632 631 633
212 1 635 634 636
213 1 638 637 639
214 1 641 640 642
215 1 644 643 645
216 1 647 646 648
217 1 650 649 651
218 1 653 652 654
219 1 656 655 657
220 1 659 658 660
221 1 662 661 663
222 1 665 664 666
223 1 668 667 669
224 1 671 670 672
225 1 674 673 675
226 1 677 676 678
227 1 680 679 681
228 1 683 682 684
229 1 686 685 687
230 1 689 688 690
231 1 692 691 693
232 1 695 694 696
233 1 698 697 699
234 1 701 700 702
235 1 704 703 705
236 1 707 706 708
237 1 710 709 711
238 1 713 712 714
239 1 716 715 717
240 1 719 718 720
241 1 722 721 723
242 1 725 724 726
243 1 728 727 729
244 1 731 730 732
245 1 734 733 735
246 1 737 736 738
247 1 740 739 741
248 1 743 742 744
249 1 746 745 747
250 1 749 748 750
251 1 752 751 753
252 1 755 754 756
253 1 758 757 759
254 1 761 760 762
255 1 764 763 765
256 1 767 766 768
257 1 770 769 771
258 1 773 772 774
259 1 776 775 777
260 1 779 778 780
261 1 782 781 783
262 1 785 784 786
263 1 788 787 789
264 1 791 790 792
265 1 794 793 795
266 1 797 796 798
267 1 800 799 801
268 1 803 802 804
269 1 806 805 807
270 1 809 808 810
271 1 812 811 813
272 1 815 814 816
273 1 818 817 819
274 1 821 820 822
275 1 824 823 825
276 1 827 826 828
277 1 830 829 831
278 1 833 832 834
279 1 836 835 837
280 1 839 838 840
281 1 842 841 843
282 1 845 844 846
283 1 848 847 849
284 1 851 850 852
285 1 854 853 855
286 1 857 856 858
287 1 860 859 861
288 1 863 862 864
289 1 866 865 867
290 1 869 868 870
291 1 872 871 873
292 1 875 874 876
293 1 878 877 879
294 1 881 880 882
295 1 884 883 885
296 1 887 886 888
297 1 890 889 891
298 1 893 892 894
299 1 896 895 897
300 1 899 898 900
301 1 902 901 903
302 1 905 904 906
303 1 908 907 909
304 1 911 910 912
305 1 914 913 915
306 1 917 916 918
307 1 920 919 921
308 1 923 922 924
309 1 926 925 927
310 1 929 928 930
311 1 932 931 933
312 1 935 934 936
313 1 938 937 939
314 1 941 940 942
315 1 944 943 945
316 1 947 946 948
317 1 950 949 951
318 1 953 952 954
319 1 956 955 957
320 1 959 958 960
321 1 962 961 963
322 1 965 964 966
323 1 968 967 969
324 1 971 970 972
325 1 974 973 975
326 1 977 976 978
327 1 980 979 981
328 1 983 982 984
329 1 986 985 987
330 1 989 988 990
331 1 992 991 993
332 1 995 994 996
333 1 998 997 999
334 1 1001 1000 1002
335 1 1004 1003 1005
336 1 1007 1006 1008
337 1 1010 1009 1011
338 1 1013 1012 1014
339 1 1016 1015 1017
340 1 1019 1018 1020
341 1 1022 1021 1023
342 1 1025 1024 1026
343 1 1028 1027 1029
344 1 1031 1030 1032
345 1 1034 1033 1035
346 1 1037 1036 1038
347 1 1040 1039 1041
348 1 1043 1042 1044
349 1 1046 1045 1047
350 1 1049 1048 1050
351 1 1052 1051 1053
352 1 1055 1054 1056
353 1 1058 1057 1059
354 1 1061 1060 1062
355 1 1064 1063 1065
356 1 1067 1066 1068
357 1 1070 1069 1071
358 1 1073 1072 1074
359 1 1076 1075 1077
360 1 1079 1078 1080
361 1 1082 1081 1083
362 1 1085 1084 1086
363 1 1088 1087 1089
364 1 1091 1090 1092
365 1 1094 1093 1095
366 1 1097 1096 1098
367 1 1100 1099 1101
368 1 1103 1102 1104
369 1 1106 1105 1107
370 1 1109 1108 1110
371 1 1112 1111 1113
372 1 1115 1114 1116
373 1 1118 1117 1119
374 1 1121 1120 1122
375 1 1124 1123 1125
376 1 1127 1126 1128
377 1 1130 1129 1131
378 1 1133 1132 1134
379 1 1136 1135 1137
380 1 1139 1138 1140
381 1 1142 1141 1143
382 1 1145 1144 1146
383 1 1148 1147 1149
384 1 1151 1150 1152
385 1 1154 1153 1155
386 1 1157 1156 1158
387 1 1160 1159 1161
388 1 1163 1162 1164
389 1 1166 1165 1167
390 1 1169 1168 1170
391 1 1172 1171 1173
392 1 1175 1174 1176
393 1 1178 1177 1179
394 1 1181 1180 1182
395 1 1184 1183 1185
396 1 1187 1186 1188
397 1 1190 1189 1191
398 1 1193 1192 1194
399 1 1196 1195 1197
400 1 1199 1198 1200
401 1 1202 1201 1203
402 1 1205 1204 1206
403 1 1208 1207 1209
404 1 1211 1210 1212
405 1 1214 1213 1215
406 1 1217 1216 1218
407 1 1220 1219 1221
408 1 1223 1222 1224
409 1 1226 1225 1227
410 1 1229 1228 1230
411 1 1232 1231 1233
412 1 1235 1234 1236
413 1 1238 1237 1239
414 1 1241 1240 1242
415 1 1244 1243 1245
416 1 1247 1246 1248
417 1 1250 1249 1251
418 1 1253 1252 1254
419 1 1256 1255 1257
420 1 1259 1258 1260
421 1 1262 1261 1263
422 1 1265 1264 1266
423 1 1268 1267 1269
424 1 1271 1270 1272
425 1 1274 1273 1275
426 1 1277 1276 1278
427 1 1280 1279 1281
428 1 1283 1282 1284
429 1 1286 1285 1287
430 1 1289 1288 1290
431 1 1292 1291 1293
432 1 1295 1294 1296
433 1 1298 1297 1299
434 1 1301 1300 1302
435 1 1304 1303 1305
436 1 1307 1306 1308
437 1 1310 1309 1311
438 1 1313 1312 1314
439 1 1316 1315 1317
440 1 1319 1318 1320
441 1 1322 1321 1323
442 1 1325 1324 1326
443 1 1328 1327 1329
444 1 1331 1330 1332
445 1 1334 1333 1335
446 1 1337 1336 1338
447 1 1340 1339 1341
448 1 1343 1342 1344
449 1 1346 1345 1347
450 1 1349 1348 1350
451 1 1352 1351 1353
452 1 1355 1354 1356
453 1 1358 1357 1359
454 1 1361 1360 1362
455 1 1364 1363 1365
456 1 1367 1366 1368
457 1 1370 1369 1371
458 1 1373 1372 1374
459 1 1376 1375 1377
460 1 1379 1378 1380
461 1 1382 1381 1383
462 1 1385 1384 1386
463 1 1388 1387 1389
464 1 1391 1390 1392
465 1 1394 1393 1395
466 1 1397 1396 1398
467 1 1400 1399 1401
468 1 1403 1402 1404
469 1 1406 1405 1407
470 1 1409 1408 1410
471 1 1412 1411 1413
472 1 1415 1414 1416
473 1 1418 1417 1419
474 1 1421 1420 1422
475 1 1424 1423 1425
476 1 1427 1426 1428
477 1 1430 1429 1431
478 1 1433 1432 1434
479 1 1436 1435 1437
480 1 1439 1438 1440
481 1 1442 1441 1443
482 1 1445 1444 1446
483 1 1448 1447 1449
484 1 1451 1450 1452
485 1 1454 1453 1455
486 1 1457 1456 1458
487 1 1460 1459 1461
488 1 1463 1462 1464
489 1 1466 1465 1467
490 1 1469 1468 1470
491 1 1472 1471 1473
492 1 1475 1474 1476
493 1 1478 1477 1479
494 1 1481 1480 1482
495 1 1484 1483 1485
496 1 1487 1486 1488
497 1 1490 1489 1491
498 1 1493 1492 1494
499 1 1496 1495 1497
500 1 1499 1498 1500
501 1 1502 1501 1503
502 1 1505 1504 1506
503 1 1508 1507 1509
504 1 1511 1510 1512
505 1 1514 1513 1515
506 1 1517 1516 1518
507 1 1520 1519 1521
508 1 1523 1522 1524
509 1 1526 1525 1527
510 1 1529 1528 1530
511 1 1532 1531 1533
512 1 1535 1534 1536
513 1 1538 1537 1539
514 1 1541 1540 1542
515 1 1544 1543 1545
516 1 1547 1546 1548
517 1 1550 1549 1551
518 1 1553 1552 1554
519 1 1556 1555 1557
520 1 1559 1558 1560
521 1 1562 1561 1563
522 1 1565 1564 1566
523 1 1568 1567 1569
524 1 1571 1570 1572
525 1 1574 1573 1575
526 1 1577 1576 1578
527 1 1580 1579 1581
528 1 1583 1582 1584
529 1 1586 1585 1587
530 1 1589 1588 1590
531 1 1592 1591 1593
532 1 1595 1594 1596
533 1 1598 1597 1599
534 1 1601 1600 1602
535 1 1604 1603 1605
536 1 1607 1606 1608
537 1 1610 1609 1611
538 1 1613 1612 1614
539 1 1616 1615 1617
540 1 1619 1618 1620
541 1 1622 1621 1623
542 1 1625 1624 1626
543 1 1628 1627 1629
544 1 1631 1630 1632
545 1 1634 1633 1635
546 1 1637 1636 1638
547 1 1640 1639 1641
548 1 1643 1642 1644
549 1 1646 1645 1647
550 1 1649 1648 1650
551 1 1652 1651 1653
552 1 1655 1654 1656
553 1 1658 1657 1659
554 1 1661 1660 1662
555 1 1664 1663 1665
556 1 1667 1666 1668
557 1 1670 1669 1671
558 1 1673 1672 1674
559 1 1676 1675 1677
560 1 1679 1678 1680
561 1 1682 1681 1683
562 1 1685 1684 1686
563 1 1688 1687 1689
564 1 1691 1690 1692
565 1 1694 1693 1695
566 1 1697 1696 1698
567 1 1700 1699 1701
568 1 1703 1702 1704
569 1 1706 1705 1707
570 1 1709 1708 1710
571 1 1712 1711 1713
572 1 1715 1714 1716
573 1 1718 1717 1719
574 1 1721 1720 1722
575 1 1724 1723 1725
576 1 1727 1726 1728
577 1 1730 1729 1731
578 1 1733 1732 1734
579 1 1736 1735 1737
580 1 1739 1738 1740
581 1 1742 1741 1743
582 1 1745 1744 1746
583 1 1748 1747 1749
584 1 1751 1750 1752
585 1 1754 1753 1755
586 1 1757 1756 1758
587 1 1760 1759 1761
588 1 1763 1762 1764
589 1 1766 1765 1767
590 1 1769 1768 1770
591 1 1772 1771 1773
592 1 1775 1774 1776
593 1 1778 1777 1779
594 1 1781 1780 1782
595 1 1784 1783 1785
596 1 1787 1786 1788
597 1 1790 1789 1791
598 1 1793 1792 1794
599 1 1796 1795 1797
600 1 1799 1798 1800
601 1 1802 1801 1803
602 1 1805 1804 1806
603 1 1808 1807 1809
604 1 1811 1810 1812
605 1 1814 1813 1815
606 1 1817 1816 1818
607 1 1820 1819 1821
608 1 1823 1822 1824
609 1 1826 1825 1827
610 1 1829 1828 1830
611 1 1832 1831 1833
612 1 1835 1834 1836
613 1 1838 1837 1839
614 1 1841 1840 1842
615 1 1844 1843 1845
616 1 1847 1846 1848
617 1 1850 1849 1851
618 1 1853 1852 1854
619 1 1856 1855 1857
620 1 1859 1858 1860
621 1 1862 1861 1863
622 1 1865 1864 1866
623 1 1868 1867 1869
624 1 1871 1870 1872
625 1 1874 1873 1875
626 1 1877 1876 1878
627 1 1880 1879 1881
628 1 1883 1882 1884
629 1 1886 1885 1887
630 1 1889 1888 1890
631 1 1892 1891 1893
632 1 1895 1894 1896
633 1 1898 1897 1899
634 1 1901 1900 1902
635 1 1904 1903 1905
636 1 1907 1906 1908
637 1 1910 1909 1911
638 1 1913 1912 1914
639 1 1916 1915 1917
640 1 1919 1918 1920
641 1 1922 1921 1923
642 1 1925 1924 1926
643 1 1928 1927 1929
644 1 1931 1930 1932
645 1 1934 1933 1935
646 1 1937 1936 1938
647 1 1940 1939 1941
648 1 1943 1942 1944
649 1 1946 1945 1947
650 1 1949 1948 1950
651 1 1952 1951 1953
652 1 1955 1954 1956
653 1 1958 1957 1959
654 1 1961 1960 1962
655 1 1964 1963 1965
656 1 1967 1966 1968
657 1 1970 1969 1971
658 1 1973 1972 1974
659 1 1976 1975 1977
660 1 1979 1978 1980
661 1 1982 1981 1983
662 1 1985 1984 1986
663 1 1988 1987 1989
664 1 1991 1990 1992
665 1 1994 1993 1995
666 1 1997 1996 1998
667 1 2000 1999 2001
668 1 2003 2002 2004
669 1 2006 2005 2007
670 1 2009 2008 2010
671 1 2012 2011 2013
672 1 2015 2014 2016
673 1 2018 2017 2019
674 1 2021 2020 2022
675 1 2024 2023 2025
676 1 2027 2026 2028
677 1 2030 2029 2031
678 1 2033 2032 2034
679 1 2036 2035 2037
680 1 2039 2038 2040
681 1 2042 2041 2043
682 1 2045 2044 2046
683 1 2048 2047 2049
684 1 2051 2050 2052
685 1 2054 2053 2055
686 1 2057 2056 2058
687 1 2060 2059 2061
688 1 2063 2062 2064
689 1 2066 2065 2067
690 1 2069 2068 2070
691 1 2072 2071 2073
692 1 2075 2074 2076
693 1 2078 2077 2079
694 1 2081 2080 2082
695 1 2084 2083 2085
696 1 2087 2086 2088
697 1 2090 2089 2091
698 1 2093 2092 2094
699 1 2096 2095 2097
700 1 2099 2098 2100
701 1 2102 2101 2103
702 1 2105 2104 2106
703 1 2108 2107 2109
704 1 2111 2110 2112
705 1 2114 2113 2115
706 1 2117 2116 2118
707 1 2120 2119 2121
708 1 2123 2122 2124
709 1 2126 2125 2127
710 1 2129 2128 2130
711 1 2132 2131 2133
712 1 2135 2134 2136
713 1 2138 2137 2139
714 1 2141 2140 2142
715 1 2144 2143 2145
716 1 2147 2146 2148
717 1 2150 2149 2151
718 1 2153 2152 2154
719 1 2156 2155 2157
720 1 2159 2158 2160
721 1 2162 2161 2163
722 1 2165 2164 2166
723 1 2168 2167 2169
724 1 2171 2170 2172
725 1 2174 2173 2175
726 1 2177 2176 2178
727 1 2180 2179 2181
728 1 2183 2182 2184
729 1 2186 2185 2187
730 1 2189 2188 2190
731 1 2192 2191 2193
732 1 2195 2194 2196
733 1 2198 2197 2199
734 1 2201 2200 2202
735 1 2204 2203 2205
736 1 2207 2206 2208
737 1 2210 2209 2211
738 1 2213 2212 2214
739 1 2216 2215 2217
740 1 2219 2218 2220
741 1 2222 2221 2223
742 1 2225 2224 2226
743 1 2228 2227 2229
744 1 2231 2230 2232
745 1 2234 2233 2235
746 1 2237 2236 2238
747 1 2240 2239 2241
748 1 2243 2242 2244
749 1 2246 2245 2247
750 1 2249 2248 2250
751 1 2252 2251 2253
752 1 2255 2254 2256
753 1 2258 2257 2259
754 1 2261 2260 2262
755 1 2264 2263 2265
756 1 2267 2266 2268
757 1 2270 2269 2271
758 1 2273 2272 2274
759 1 2276 2275 2277
760 1 2279 2278 2280
761 1 2282 2281 2283
762 1 2285 2284 2286
763 1 2288 2287 2289
764 1 2291 2290 2292
765 1 2294 2293 2295
766 1 2297 2296 2298
767 1 2300 2299 2301
768 1 2303 2302 2304
769 1 2306 2305 2307
770 1 2309 2308 2310
771 1 2312 2311 2313
772 1 2315 2314 2316
773 1 2318 2317 2319
774 1 2321 2320 2322
775 1 2324 2323 2325
776 1 2327 2326 2328
777 1 2330 2329 2331
778 1 2333 2332 2334
779 1 2336 2335 2337
780 1 2339 2338 2340
781 1 2342 2341 2343
782 1 2345 2344 2346
783 1 2348 2347 2349
784 1 2351 2350 2352
785 1 2354 2353 2355
786 1 2357 2356 2358
787 1 2360 2359 2361
788 1 2363 2362 2364
789 1 2366 2365 2367
790 1 2369 2368 2370
791 1 2372 2371 2373
792 1 2375 2374 2376
793 1 2378 2377 2379
794 1 2381 2380 2382
795 1 2384 2383 2385
796 1 2387 2386 2388
797 1 2390 2389 2391
798 1 2393 2392 2394
799 1 2396 2395 2397
800 1 2399 2398 2400
801 1 2402 2401 2403
802 1 2405 2404 2406
803 1 2408 2407 2409
804 1 2411 2410 2412
805 1 2414 2413 2415
806 1 2417 2416 2418
807 1 2420 2419 2421
808 1 2423 2422 2424
809 1 2426 2425 2427
810 1 2429 2428 2430
811 1 2432 2431 2433
812 1 2435 2434 2436
813 1 2438 2437 2439
814 1 2441 2440 2442
815 1 2444 2443 2445
816 1 2447 2446 2448
817 1 2450 2449 2451
818 1 2453 2452 2454
819 1 2456 2455 2457
820 1 2459 2458 2460
821 1 2462 2461 2463
822 1 2465 2464 2466
823 1 2468 2467 2469
824 1 2471 2470 2472
825 1 2474 2473 2475
826 1 2477 2476 2478
827 1 2480 2479 2481
828 1 2483 2482 2484
829 1 2486 2485 2487
830 1 2489 2488 2490
831 1 2492 2491 2493
832 1 2495 2494 2496
833 1 2498 2497 2499
834 1 2501 2500 2502
835 1 2504 2503 2505
836 1 2507 2506 2508
837 1 2510 2509 2511
838 1 2513 2512 2514
839 1 2516 2515 2517
840 1 2519 2518 2520
841 1 2522 2521 2523
842 1 2525 2524 2526
843 1 2528 2527 2529
844 1 2531 2530 2532
845 1 2534 2533 2535
846 1 2537 2536 2538
847 1 2540 2539 2541
848 1 2543 2542 2544
849 1 2546 2545 2547
850 1 2549 2548 2550
851 1 2552 2551 2553
852 1 2555 2554 2556
853 1 2558 2557 2559
854 1 2561 2560 2562
855 1 2564 2563 2565
856 1 2567 2566 2568
857 1 2570 2569 2571
858 1 2573 2572 2574
859 1 2576 2575 2577
860 1 2579 2578 2580
861 1 2582 2581 2583
862 1 2585 2584 2586
863 1 2588 2587 2589
864 1 2591 2590 2592
865 1 2594 2593 2595
866 1 2597 2596 2598
867 1 2600 2599 2601
868 1 2603 2602 2604
869 1 2606 2605 2607
870 1 2609 2608 2610
871 1 2612 2611 2613
872 1 2615 2614 2616
873 1 2618 2617 2619
874 1 2621 2620 2622
875 1 2624 2623 2625
876 1 2627 2626 2628
877 1 2630 2629 2631
878 1 2633 2632 2634
879 1 2636 2635 2637
880 1 2639 2638 2640
881 1 2642 2641 2643
882 1 2645 2644 2646
883 1 2648 2647 2649
884 1 2651 2650 2652
885 1 2654 2653 2655
886 1 2657 2656 2658
887 1 2660 2659 2661
888 1 2663 2662 2664
889 1 2666 2665 2667
890 1 2669 2668 2670
891 1 2672 2671 2673
892 1 2675 2674 2676
893 1 2678 2677 2679
894 1 2681 2680 2682
895 1 2684 2683 2685
896 1 2687 2686 2688
897 1 2690 2689 2691
898 1 2693 2692 2694
899 1 2696 2695 2697
900 1 2699 2698 2700
901 1 2702 2701 2703
902 1 2705 2704 2706
903 1 2708 2707 2709
904 1 2711 2710 2712
905 1 2714 2713 2715
906 1 2717 2716 2718
907 1 2720 2719 2721
908 1 2723 2722 2724
909 1 2726 2725 2727
910 1 2729 2728 2730
911 1 2732 2731 2733
912 1 2735 2734 2736
913 1 2738 2737 2739
914 1 2741 2740 2742
915 1 2744 2743 2745
916 1 2747 2746 2748
917 1 2750 2749 2751
918 1 2753 2752 2754
919 1 2756 2755 2757
920 1 2759 2758 2760
921 1 2762 2761 2763
922 1 2765 2764 2766
923 1 2768 2767 2769
924 1 2771 2770 2772
925 1 2774 2773 2775
926 1 2777 2776 2778
927 1 2780 2779 2781
928 1 2783 2782 2784
929 1 2786 2785 2787
930 1 2789 2788 2790
931 1 2792 2791 2793
932 1 2795 2794 2796
933 1 2798 2797 2799
934 1 2801 2800 2802
935 1 2804 2803 2805
936 1 2807 2806 2808
937 1 2810 2809 2811
938 1 2813 2812 2814
939 1 2816 2815 2817
940 1 2819 2818 2820
941 1 2822 2821 2823
942 1 2825 2824 2826
943 1 2828 2827 2829
944 1 2831 2830 2832
945 1 2834 2833 2835
946 1 2837 2836 2838
947 1 2840 2839 2841
948 1 2843 2842 2844
949 1 2846 2845 2847
950 1 2849 2848 2850
951 1 2852 2851 2853
952 1 2855 2854 2856
953 1 2858 2857 2859
954 1 2861 2860 2862
955 1 2864 2863 2865
956 1 2867 2866 2868
957 1 2870 2869 2871
958 1 2873 2872 2874
959 1 2876 2875 2877
960 1 2879 2878 2880
961 1 2882 2881 2883
962 1 2885 2884 2886
963 1 2888 2887 2889
964 1 2891 2890 2892
965 1 2894 2893 2895
966 1 2897 2896 2898
967 1 2900 2899 2901
968 1 2903 2902 2904
969 1 2906 2905 2907
970 1 2909 2908 2910
971 1 2912 2911 2913
972 1 2915 2914 2916
973 1 2918 2917 2919
974 1 2921 2920 2922
975 1 2924 2923 2925
976 1 2927 2926 2928
977 1 2930 2929 2931
978 1 2933 2932 2934
979 1 2936 2935 2937
980 1 2939 2938 2940
981 1 2942 2941 2943
982 1 2945 2944 2946
983 1 2948 2947 2949
984 1 2951 2950 2952
985 1 2954 2953 2955
986 1 2957 2956 2958
987 1 2960 2959 2961
988 1 2963 2962 2964
989 1 2966 2965 2967
990 1 2969 2968 2970
991 1 2972 2971 2973
992 1 2975 2974 2976
993 1 2978 2977 2979
994 1 2981 2980 2982
995 1 2984 2983 2985
996 1 2987 2986 2988
997 1 2990 2989 2991
998 1 2993 2992 2994
999 1 2996 2995 2997
1000 1 2999 2998 3000
1001 1 3002 3001 3003
1002 1 3005 3004 3006
1003 1 3008 3007 3009
1004 1 3011 3010 3012
1005 1 3014 3013 3015
1006 1 3017 3016 3018
1007 1 3020 3019 3021
1008 1 3023 3022 3024
1009 1 3026 3025 3027
1010 1 3029 3028 3030
1011 1 3032 3031 3033
1012 1 3035 3034 3036
1013 1 3038 3037 3039
1014 1 3041 3040 3042
1015 1 3044 3043 3045
1016 1 3047 3046 3048
1017 1 3050 3049 3051
1018 1 3053 3052 3054
1019 1 3056 3055 3057
1020 1 3059 3058 3060
1021 1 3062 3061 3063
1022 1 3065 3064 3066
1023 1 3068 3067 3069
1024 1 3071 3070 3072

