LAMMPS data file. CGCMM style. atom_style full generated by VMD/TopoTools v1.8 on Thu Jun 26 13:45:07 CDT 2025
 10368 atoms
 6912 bonds
 3456 angles
 0 dihedrals
 0 impropers
 4 atom types
 2 bond types
 2 angle types
 0 dihedral types
 0 improper types
 -0.337000 47.782999  xlo xhi
 -0.490499 47.629500  ylo yhi
 -0.042499 48.077500  zlo zhi

# Pair Coeffs
#
# 1  1
# 2  2
# 3  3
# 4  4

# Bond Coeffs
#
# 1  1
# 2  2

# Angle Coeffs
#
# 1  3
# 2  9

 Masses

 1 15.999000 # 1
 2 1.008000 # 2
 3 15.999000 # 3
 4 12.011000 # 4

 Atoms # full

1 1 1 -1.179400 12.030000 0.000000 3.006000 # 1 
2 1 2 0.589700 11.231001 0.029000 3.532000 # 2 
3 1 2 0.589700 12.000999 0.799000 2.480000 # 2 
4 1 1 -1.179400 12.030000 2.321000 1.422000 # 1 
5 1 2 0.589700 11.244000 2.804000 1.678000 # 2 
6 1 2 0.589700 12.016000 2.329000 0.465000 # 2 
7 1 1 -1.179400 12.030000 2.321000 10.608000 # 1 
8 1 2 0.589700 11.247999 2.800000 10.334999 # 2 
9 1 2 0.589700 12.028000 1.531000 10.067999 # 2 
10 1 1 -1.179400 12.030000 9.709000 1.422000 # 1 
11 1 2 0.589700 12.812000 9.230000 1.695000 # 2 
12 1 2 0.589700 12.032000 10.499000 1.962000 # 2 
13 1 1 -1.179400 12.030000 9.709000 10.608000 # 1 
14 1 2 0.589700 12.816000 9.226000 10.352000 # 2 
15 1 2 0.589700 12.044000 9.700000 11.565000 # 2 
16 1 1 -1.179400 18.045000 9.024000 0.000000 # 1 
17 1 2 0.589700 18.073999 9.550000 0.799000 # 2 
18 1 2 0.589700 18.844000 8.498000 0.029000 # 2 
19 1 1 -1.179400 18.045000 1.422000 2.321000 # 1 
20 1 2 0.589700 17.263000 1.695000 2.800000 # 2 
21 1 2 0.589700 18.042999 1.962000 1.531000 # 2 
22 1 1 -1.179400 18.045000 10.608000 2.321000 # 1 
23 1 2 0.589700 17.259001 10.352000 2.804000 # 2 
24 1 2 0.589700 18.031000 11.565000 2.329000 # 2 
25 1 1 -1.179400 18.045000 1.422000 9.709000 # 1 
26 1 2 0.589700 18.831001 1.678000 9.226000 # 2 
27 1 2 0.589700 18.059000 0.465000 9.700000 # 2 
28 1 1 -1.179400 18.045000 10.608000 9.709000 # 1 
29 1 2 0.589700 18.047001 10.067999 10.499000 # 2 
30 1 2 0.589700 18.827000 10.334999 9.230000 # 2 
31 1 1 -1.179400 15.725000 4.593000 0.000000 # 1 
32 1 2 0.589700 15.226001 4.321000 0.770000 # 2 
33 1 2 0.589700 15.707001 5.549000 0.028000 # 2 
34 1 1 -1.179400 14.349999 0.000000 7.437000 # 1 
35 1 2 0.589700 14.849000 0.770000 7.709000 # 2 
36 1 2 0.589700 14.368000 0.028000 6.481000 # 2 
37 1 1 -1.179400 14.292999 3.713000 2.210000 # 1 
38 1 2 0.589700 14.811000 3.125000 2.759000 # 2 
39 1 2 0.589700 13.527000 3.196000 1.961000 # 2 
40 1 1 -1.179400 14.292999 3.713000 9.820000 # 1 
41 1 2 0.589700 14.751000 3.994000 10.613001 # 2 
42 1 2 0.589700 13.525000 3.240000 10.142000 # 2 
43 1 1 -1.179400 14.292999 8.317000 2.210000 # 1 
44 1 2 0.589700 14.025001 7.531000 2.686000 # 2 
45 1 2 0.589700 14.783000 7.986000 1.456000 # 2 
46 1 1 -1.179400 14.292999 8.317000 9.820000 # 1 
47 1 2 0.589700 14.837000 8.844000 9.235000 # 2 
48 1 2 0.589700 14.033999 7.563000 9.292000 # 2 
49 1 1 -1.179400 15.782000 2.210000 3.713000 # 1 
50 1 2 0.589700 16.049000 2.686000 4.499000 # 2 
51 1 2 0.589700 15.292000 1.456000 4.044000 # 2 
52 1 1 -1.179400 15.782000 9.820000 3.713000 # 1 
53 1 2 0.589700 16.041000 9.292000 4.467000 # 2 
54 1 2 0.589700 15.238000 9.235000 3.186000 # 2 
55 1 1 -1.179400 15.782000 2.210000 8.317000 # 1 
56 1 2 0.589700 16.548000 1.961000 8.834000 # 2 
57 1 2 0.589700 15.264000 2.759000 8.905000 # 2 
58 1 1 -1.179400 15.782000 9.820000 8.317000 # 1 
59 1 2 0.589700 16.549999 10.142000 8.790000 # 2 
60 1 2 0.589700 15.324000 10.613001 8.036000 # 2 
61 1 1 -1.179400 20.365000 4.593000 0.000000 # 1 
62 1 2 0.589700 20.860001 4.291000 0.762000 # 2 
63 1 2 0.589700 19.575001 4.053000 -0.002000 # 2 
64 1 1 -1.179400 21.740000 0.000000 7.437000 # 1 
65 1 2 0.589700 21.245001 0.762000 7.739000 # 2 
66 1 2 0.589700 22.530001 -0.002000 7.977000 # 2 
67 1 1 -1.179400 21.797001 3.713000 2.210000 # 1 
68 1 2 0.589700 22.056000 4.467000 2.738000 # 2 
69 1 2 0.589700 21.252998 3.186000 2.795000 # 2 
70 1 1 -1.179400 21.797001 3.713000 9.820000 # 1 
71 1 2 0.589700 21.307001 4.044000 10.573999 # 2 
72 1 2 0.589700 22.065001 4.499000 9.344000 # 2 
73 1 1 -1.179400 21.797001 8.317000 2.210000 # 1 
74 1 2 0.589700 22.565001 8.790000 1.888000 # 2 
75 1 2 0.589700 21.338999 8.036000 1.417000 # 2 
76 1 1 -1.179400 21.797001 8.317000 9.820000 # 1 
77 1 2 0.589700 22.563000 8.834000 10.069000 # 2 
78 1 2 0.589700 21.278000 8.905000 9.271000 # 2 
79 1 1 -1.179400 20.308001 2.210000 3.713000 # 1 
80 1 2 0.589700 20.766001 1.417000 3.994000 # 2 
81 1 2 0.589700 19.540001 1.888000 3.240000 # 2 
82 1 1 -1.179400 20.308001 9.820000 3.713000 # 1 
83 1 2 0.589700 19.542000 10.069000 3.196000 # 2 
84 1 2 0.589700 20.827000 9.271000 3.125000 # 2 
85 1 1 -1.179400 20.308001 2.210000 8.317000 # 1 
86 1 2 0.589700 20.049000 2.738000 7.563000 # 2 
87 1 2 0.589700 20.852001 2.795000 8.844000 # 2 
88 1 1 -1.179400 20.308001 9.820000 8.317000 # 1 
89 1 2 0.589700 20.797998 10.573999 7.986000 # 2 
90 1 2 0.589700 20.041000 9.344000 7.531000 # 2 
91 1 1 -1.179400 15.036000 6.015000 6.015000 # 1 
92 1 2 0.589700 15.562000 6.814000 5.986000 # 2 
93 1 2 0.589700 14.510000 6.044001 5.216000 # 2 
94 1 1 -1.179400 21.054001 6.015000 6.015000 # 1 
95 1 2 0.589700 21.580000 5.986000 6.814000 # 2 
96 1 2 0.589700 20.528000 5.216000 6.044001 # 2 
97 1 1 -1.179400 13.452001 6.015000 8.336000 # 1 
98 1 2 0.589700 13.993999 6.010000 7.547000 # 2 
99 1 2 0.589700 13.737000 5.245000 8.828000 # 2 
100 1 1 -1.179400 22.637999 6.015000 8.336000 # 1 
101 1 2 0.589700 22.376999 6.789000 8.835000 # 2 
102 1 2 0.589700 23.594999 6.033000 8.347000 # 2 
103 1 1 -1.179400 13.452001 6.015000 3.694000 # 1 
104 1 2 0.589700 12.495001 5.997000 3.683000 # 2 
105 1 2 0.589700 13.712999 5.241000 3.195000 # 2 
106 1 1 -1.179400 22.637999 6.015000 3.694000 # 1 
107 1 2 0.589700 22.096001 6.020000 4.483000 # 2 
108 1 2 0.589700 22.353001 6.785000 3.202000 # 2 
109 1 1 -1.179400 16.622999 3.695000 6.015000 # 1 
110 1 2 0.589700 16.080000 4.483000 6.020000 # 2 
111 1 2 0.589700 16.338001 3.203000 6.785000 # 2 
112 1 1 -1.179400 19.466999 3.695000 6.015000 # 1 
113 1 2 0.589700 18.510000 3.683000 5.997000 # 2 
114 1 2 0.589700 19.728001 3.195000 5.241000 # 2 
115 1 1 -1.179400 16.622999 8.335000 6.015000 # 1 
116 1 2 0.589700 16.362000 8.835000 6.789000 # 2 
117 1 2 0.589700 17.580000 8.347000 6.033000 # 2 
118 1 1 -1.179400 19.466999 8.335000 6.015000 # 1 
119 1 2 0.589700 20.009998 7.547000 6.010000 # 2 
120 1 2 0.589700 19.752001 8.827000 5.245000 # 2 
121 1 1 -1.179400 0.000000 12.030000 9.024000 # 1 
122 1 2 0.589700 0.029000 11.231001 9.550000 # 2 
123 1 2 0.589700 0.799000 12.000999 8.498000 # 2 
124 1 1 -1.179400 2.320000 12.030000 4.593000 # 1 
125 1 2 0.589700 1.530000 12.032000 4.053000 # 2 
126 1 2 0.589700 2.815000 11.268000 4.291000 # 2 
127 1 1 -1.179400 9.710000 12.030000 4.593000 # 1 
128 1 2 0.589700 9.211000 11.260000 4.321000 # 2 
129 1 2 0.589700 9.692000 12.002000 5.549000 # 2 
130 1 1 -1.179400 0.000000 21.738998 1.422000 # 1 
131 1 2 0.589700 0.782000 21.259998 1.695000 # 2 
132 1 2 0.589700 0.002000 22.528999 1.962000 # 2 
133 1 1 -1.179400 0.000000 21.738998 10.608000 # 1 
134 1 2 0.589700 0.786000 21.256001 10.352000 # 2 
135 1 2 0.589700 0.014000 21.730001 11.565000 # 2 
136 1 1 -1.179400 6.015000 21.054001 0.000000 # 1 
137 1 2 0.589700 6.044001 21.580000 0.799000 # 2 
138 1 2 0.589700 6.814000 20.528000 0.029000 # 2 
139 1 1 -1.179400 6.015000 13.452001 2.321000 # 1 
140 1 2 0.589700 5.233000 13.725000 2.800000 # 2 
141 1 2 0.589700 6.013000 13.992000 1.531000 # 2 
142 1 1 -1.179400 6.015000 22.637999 2.321000 # 1 
143 1 2 0.589700 5.229000 22.382000 2.804000 # 2 
144 1 2 0.589700 6.001000 23.594999 2.329000 # 2 
145 1 1 -1.179400 6.015000 13.452001 9.709000 # 1 
146 1 2 0.589700 6.801000 13.708000 9.226000 # 2 
147 1 2 0.589700 6.029000 12.495001 9.700000 # 2 
148 1 1 -1.179400 6.015000 22.637999 9.709000 # 1 
149 1 2 0.589700 6.017000 22.098000 10.499000 # 2 
150 1 2 0.589700 6.797000 22.365000 9.230000 # 2 
151 1 1 -1.179400 3.695000 16.622999 0.000000 # 1 
152 1 2 0.589700 3.196000 16.351000 0.770000 # 2 
153 1 2 0.589700 3.677000 17.579000 0.028000 # 2 
154 1 1 -1.179400 2.320000 12.030000 7.437000 # 1 
155 1 2 0.589700 2.819000 12.799999 7.709000 # 2 
156 1 2 0.589700 2.338000 12.058001 6.481000 # 2 
157 1 1 -1.179400 2.263000 15.743000 2.210000 # 1 
158 1 2 0.589700 2.781000 15.155000 2.759000 # 2 
159 1 2 0.589700 1.497000 15.226001 1.961000 # 2 
160 1 1 -1.179400 2.263000 15.743000 9.820000 # 1 
161 1 2 0.589700 2.721000 16.024000 10.613001 # 2 
162 1 2 0.589700 1.495000 15.270000 10.142000 # 2 
163 1 1 -1.179400 2.263000 20.347002 2.210000 # 1 
164 1 2 0.589700 1.995000 19.561001 2.686000 # 2 
165 1 2 0.589700 2.753000 20.016001 1.456000 # 2 
166 1 1 -1.179400 2.263000 20.347002 9.820000 # 1 
167 1 2 0.589700 2.807000 20.874001 9.235000 # 2 
168 1 2 0.589700 2.004000 19.593000 9.292000 # 2 
169 1 1 -1.179400 3.752000 14.240000 3.713000 # 1 
170 1 2 0.589700 4.019000 14.716001 4.499000 # 2 
171 1 2 0.589700 3.262000 13.486000 4.044000 # 2 
172 1 1 -1.179400 3.752000 21.849998 3.713000 # 1 
173 1 2 0.589700 4.011000 21.322001 4.467000 # 2 
174 1 2 0.589700 3.208000 21.264999 3.186000 # 2 
175 1 1 -1.179400 3.752000 14.240000 8.317000 # 1 
176 1 2 0.589700 4.518000 13.990999 8.834000 # 2 
177 1 2 0.589700 3.234000 14.789000 8.905000 # 2 
178 1 1 -1.179400 3.752000 21.849998 8.317000 # 1 
179 1 2 0.589700 4.520000 22.172001 8.790000 # 2 
180 1 2 0.589700 3.294000 22.643002 8.036000 # 2 
181 1 1 -1.179400 8.335000 16.622999 0.000000 # 1 
182 1 2 0.589700 8.830000 16.320999 0.762000 # 2 
183 1 2 0.589700 7.545000 16.083000 -0.002000 # 2 
184 1 1 -1.179400 9.710000 12.030000 7.437000 # 1 
185 1 2 0.589700 9.215000 12.792000 7.739000 # 2 
186 1 2 0.589700 10.500000 12.028000 7.977000 # 2 
187 1 1 -1.179400 9.767000 15.743000 2.210000 # 1 
188 1 2 0.589700 10.025999 16.497000 2.738000 # 2 
189 1 2 0.589700 9.223000 15.216000 2.795000 # 2 
190 1 1 -1.179400 9.767000 15.743000 9.820000 # 1 
191 1 2 0.589700 9.277000 16.074001 10.573999 # 2 
192 1 2 0.589700 10.035000 16.528999 9.344000 # 2 
193 1 1 -1.179400 9.767000 20.347002 2.210000 # 1 
194 1 2 0.589700 10.535000 20.820000 1.888000 # 2 
195 1 2 0.589700 9.309000 20.066002 1.417000 # 2 
196 1 1 -1.179400 9.767000 20.347002 9.820000 # 1 
197 1 2 0.589700 10.533000 20.864000 10.069000 # 2 
198 1 2 0.589700 9.248000 20.934999 9.271000 # 2 
199 1 1 -1.179400 8.278000 14.240000 3.713000 # 1 
200 1 2 0.589700 8.736000 13.447000 3.994000 # 2 
201 1 2 0.589700 7.510000 13.918000 3.240000 # 2 
202 1 1 -1.179400 8.278000 21.849998 3.713000 # 1 
203 1 2 0.589700 7.512000 22.099001 3.196000 # 2 
204 1 2 0.589700 8.797000 21.301001 3.125000 # 2 
205 1 1 -1.179400 8.278000 14.240000 8.317000 # 1 
206 1 2 0.589700 8.019000 14.768000 7.563000 # 2 
207 1 2 0.589700 8.822000 14.825000 8.844000 # 2 
208 1 1 -1.179400 8.278000 21.849998 8.317000 # 1 
209 1 2 0.589700 8.768000 22.604000 7.986000 # 2 
210 1 2 0.589700 8.011000 21.373999 7.531000 # 2 
211 1 1 -1.179400 3.006000 18.045000 6.015000 # 1 
212 1 2 0.589700 3.532000 18.844000 5.986000 # 2 
213 1 2 0.589700 2.480000 18.073999 5.216000 # 2 
214 1 1 -1.179400 9.024000 18.045000 6.015000 # 1 
215 1 2 0.589700 9.550000 18.015999 6.814000 # 2 
216 1 2 0.589700 8.498000 17.246000 6.044001 # 2 
217 1 1 -1.179400 1.422000 18.045000 8.336000 # 1 
218 1 2 0.589700 1.964000 18.040001 7.547000 # 2 
219 1 2 0.589700 1.707000 17.275000 8.828000 # 2 
220 1 1 -1.179400 10.608000 18.045000 8.336000 # 1 
221 1 2 0.589700 10.347000 18.819000 8.835000 # 2 
222 1 2 0.589700 11.565000 18.063000 8.347000 # 2 
223 1 1 -1.179400 1.422000 18.045000 3.694000 # 1 
224 1 2 0.589700 0.465000 18.027000 3.683000 # 2 
225 1 2 0.589700 1.683000 17.271000 3.195000 # 2 
226 1 1 -1.179400 10.608000 18.045000 3.694000 # 1 
227 1 2 0.589700 10.066000 18.049999 4.483000 # 2 
228 1 2 0.589700 10.323000 18.815001 3.202000 # 2 
229 1 1 -1.179400 4.593000 15.725000 6.015000 # 1 
230 1 2 0.589700 4.050000 16.513000 6.020000 # 2 
231 1 2 0.589700 4.308000 15.233001 6.785000 # 2 
232 1 1 -1.179400 7.437000 15.725000 6.015000 # 1 
233 1 2 0.589700 6.480000 15.713000 5.997000 # 2 
234 1 2 0.589700 7.698000 15.225000 5.241000 # 2 
235 1 1 -1.179400 4.593000 20.365000 6.015000 # 1 
236 1 2 0.589700 4.332000 20.865000 6.789000 # 2 
237 1 2 0.589700 5.550000 20.376999 6.033000 # 2 
238 1 1 -1.179400 7.437000 20.365000 6.015000 # 1 
239 1 2 0.589700 7.980000 19.577000 6.010000 # 2 
240 1 2 0.589700 7.722000 20.857000 5.245000 # 2 
241 1 1 -1.179400 0.000000 9.709000 1.422000 # 1 
242 1 2 0.589700 0.782000 9.230000 1.695000 # 2 
243 1 2 0.589700 0.002000 10.499000 1.962000 # 2 
244 1 1 -1.179400 0.000000 9.709000 10.608000 # 1 
245 1 2 0.589700 0.786000 9.226000 10.352000 # 2 
246 1 2 0.589700 0.014000 9.700000 11.565000 # 2 
247 1 1 -1.179400 6.015000 9.024000 0.000000 # 1 
248 1 2 0.589700 6.044001 9.550000 0.799000 # 2 
249 1 2 0.589700 6.814000 8.498000 0.029000 # 2 
250 1 1 -1.179400 6.015000 1.422000 2.321000 # 1 
251 1 2 0.589700 5.233000 1.695000 2.800000 # 2 
252 1 2 0.589700 6.013000 1.962000 1.531000 # 2 
253 1 1 -1.179400 6.015000 10.608000 2.321000 # 1 
254 1 2 0.589700 5.229000 10.352000 2.804000 # 2 
255 1 2 0.589700 6.001000 11.565000 2.329000 # 2 
256 1 1 -1.179400 6.015000 1.422000 9.709000 # 1 
257 1 2 0.589700 6.801000 1.678000 9.226000 # 2 
258 1 2 0.589700 6.029000 0.465000 9.700000 # 2 
259 1 1 -1.179400 6.015000 10.608000 9.709000 # 1 
260 1 2 0.589700 6.017000 10.067999 10.499000 # 2 
261 1 2 0.589700 6.797000 10.334999 9.230000 # 2 
262 1 1 -1.179400 3.695000 4.593000 0.000000 # 1 
263 1 2 0.589700 3.196000 4.321000 0.770000 # 2 
264 1 2 0.589700 3.677000 5.549000 0.028000 # 2 
265 1 1 -1.179400 2.320000 0.000000 7.437000 # 1 
266 1 2 0.589700 2.819000 0.770000 7.709000 # 2 
267 1 2 0.589700 2.338000 0.028000 6.481000 # 2 
268 1 1 -1.179400 2.263000 3.713000 2.210000 # 1 
269 1 2 0.589700 2.781000 3.125000 2.759000 # 2 
270 1 2 0.589700 1.497000 3.196000 1.961000 # 2 
271 1 1 -1.179400 2.263000 3.713000 9.820000 # 1 
272 1 2 0.589700 2.721000 3.994000 10.613001 # 2 
273 1 2 0.589700 1.495000 3.240000 10.142000 # 2 
274 1 1 -1.179400 2.263000 8.317000 2.210000 # 1 
275 1 2 0.589700 1.995000 7.531000 2.686000 # 2 
276 1 2 0.589700 2.753000 7.986000 1.456000 # 2 
277 1 1 -1.179400 2.263000 8.317000 9.820000 # 1 
278 1 2 0.589700 2.807000 8.844000 9.235000 # 2 
279 1 2 0.589700 2.004000 7.563000 9.292000 # 2 
280 1 1 -1.179400 3.752000 2.210000 3.713000 # 1 
281 1 2 0.589700 4.019000 2.686000 4.499000 # 2 
282 1 2 0.589700 3.262000 1.456000 4.044000 # 2 
283 1 1 -1.179400 3.752000 9.820000 3.713000 # 1 
284 1 2 0.589700 4.011000 9.292000 4.467000 # 2 
285 1 2 0.589700 3.208000 9.235000 3.186000 # 2 
286 1 1 -1.179400 3.752000 2.210000 8.317000 # 1 
287 1 2 0.589700 4.518000 1.961000 8.834000 # 2 
288 1 2 0.589700 3.234000 2.759000 8.905000 # 2 
289 1 1 -1.179400 3.752000 9.820000 8.317000 # 1 
290 1 2 0.589700 4.520000 10.142000 8.790000 # 2 
291 1 2 0.589700 3.294000 10.613001 8.036000 # 2 
292 1 1 -1.179400 8.335000 4.593000 0.000000 # 1 
293 1 2 0.589700 8.830000 4.291000 0.762000 # 2 
294 1 2 0.589700 7.545000 4.053000 -0.002000 # 2 
295 1 1 -1.179400 9.710000 0.000000 7.437000 # 1 
296 1 2 0.589700 9.215000 0.762000 7.739000 # 2 
297 1 2 0.589700 10.500000 -0.002000 7.977000 # 2 
298 1 1 -1.179400 9.767000 3.713000 2.210000 # 1 
299 1 2 0.589700 10.025999 4.467000 2.738000 # 2 
300 1 2 0.589700 9.223000 3.186000 2.795000 # 2 
301 1 1 -1.179400 9.767000 3.713000 9.820000 # 1 
302 1 2 0.589700 9.277000 4.044000 10.573999 # 2 
303 1 2 0.589700 10.035000 4.499000 9.344000 # 2 
304 1 1 -1.179400 9.767000 8.317000 2.210000 # 1 
305 1 2 0.589700 10.535000 8.790000 1.888000 # 2 
306 1 2 0.589700 9.309000 8.036000 1.417000 # 2 
307 1 1 -1.179400 9.767000 8.317000 9.820000 # 1 
308 1 2 0.589700 10.533000 8.834000 10.069000 # 2 
309 1 2 0.589700 9.248000 8.905000 9.271000 # 2 
310 1 1 -1.179400 8.278000 2.210000 3.713000 # 1 
311 1 2 0.589700 8.736000 1.417000 3.994000 # 2 
312 1 2 0.589700 7.510000 1.888000 3.240000 # 2 
313 1 1 -1.179400 8.278000 9.820000 3.713000 # 1 
314 1 2 0.589700 7.512000 10.069000 3.196000 # 2 
315 1 2 0.589700 8.797000 9.271000 3.125000 # 2 
316 1 1 -1.179400 8.278000 2.210000 8.317000 # 1 
317 1 2 0.589700 8.019000 2.738000 7.563000 # 2 
318 1 2 0.589700 8.822000 2.795000 8.844000 # 2 
319 1 1 -1.179400 8.278000 9.820000 8.317000 # 1 
320 1 2 0.589700 8.768000 10.573999 7.986000 # 2 
321 1 2 0.589700 8.011000 9.344000 7.531000 # 2 
322 1 1 -1.179400 3.006000 6.015000 6.015000 # 1 
323 1 2 0.589700 3.532000 6.814000 5.986000 # 2 
324 1 2 0.589700 2.480000 6.044001 5.216000 # 2 
325 1 1 -1.179400 9.024000 6.015000 6.015000 # 1 
326 1 2 0.589700 9.550000 5.986000 6.814000 # 2 
327 1 2 0.589700 8.498000 5.216000 6.044001 # 2 
328 1 1 -1.179400 1.422000 6.015000 8.336000 # 1 
329 1 2 0.589700 1.964000 6.010000 7.547000 # 2 
330 1 2 0.589700 1.707000 5.245000 8.828000 # 2 
331 1 1 -1.179400 10.608000 6.015000 8.336000 # 1 
332 1 2 0.589700 10.347000 6.789000 8.835000 # 2 
333 1 2 0.589700 11.565000 6.033000 8.347000 # 2 
334 1 1 -1.179400 1.422000 6.015000 3.694000 # 1 
335 1 2 0.589700 0.465000 5.997000 3.683000 # 2 
336 1 2 0.589700 1.683000 5.241000 3.195000 # 2 
337 1 1 -1.179400 10.608000 6.015000 3.694000 # 1 
338 1 2 0.589700 10.066000 6.020000 4.483000 # 2 
339 1 2 0.589700 10.323000 6.785000 3.202000 # 2 
340 1 1 -1.179400 4.593000 3.695000 6.015000 # 1 
341 1 2 0.589700 4.050000 4.483000 6.020000 # 2 
342 1 2 0.589700 4.308000 3.203000 6.785000 # 2 
343 1 1 -1.179400 7.437000 3.695000 6.015000 # 1 
344 1 2 0.589700 6.480000 3.683000 5.997000 # 2 
345 1 2 0.589700 7.698000 3.195000 5.241000 # 2 
346 1 1 -1.179400 4.593000 8.335000 6.015000 # 1 
347 1 2 0.589700 4.332000 8.835000 6.789000 # 2 
348 1 2 0.589700 5.550000 8.347000 6.033000 # 2 
349 1 1 -1.179400 7.437000 8.335000 6.015000 # 1 
350 1 2 0.589700 7.980000 7.547000 6.010000 # 2 
351 1 2 0.589700 7.722000 8.827000 5.245000 # 2 
352 1 1 -1.179400 6.015000 3.006000 12.030000 # 1 
353 1 2 0.589700 5.986000 2.480000 11.231001 # 2 
354 1 2 0.589700 5.216000 3.532000 12.000999 # 2 
355 1 1 -1.179400 3.695000 7.437000 12.030000 # 1 
356 1 2 0.589700 4.485000 7.977000 12.032000 # 2 
357 1 2 0.589700 3.200000 7.739000 11.268000 # 2 
358 1 1 -1.179400 8.335000 7.437000 12.030000 # 1 
359 1 2 0.589700 8.834000 7.709000 11.260000 # 2 
360 1 2 0.589700 8.353000 6.481000 12.002000 # 2 
361 1 1 -1.179400 0.000000 9.709000 13.452001 # 1 
362 1 2 0.589700 0.782000 9.230000 13.725000 # 2 
363 1 2 0.589700 0.002000 10.499000 13.992000 # 2 
364 1 1 -1.179400 0.000000 9.709000 22.637999 # 1 
365 1 2 0.589700 0.786000 9.226000 22.382000 # 2 
366 1 2 0.589700 0.014000 9.700000 23.594999 # 2 
367 1 1 -1.179400 6.015000 9.024000 12.030000 # 1 
368 1 2 0.589700 6.044001 9.550000 12.829000 # 2 
369 1 2 0.589700 6.814000 8.498000 12.059000 # 2 
370 1 1 -1.179400 6.015000 1.422000 14.351000 # 1 
371 1 2 0.589700 5.233000 1.695000 14.830000 # 2 
372 1 2 0.589700 6.013000 1.962000 13.561000 # 2 
373 1 1 -1.179400 6.015000 10.608000 14.351000 # 1 
374 1 2 0.589700 5.229000 10.352000 14.834000 # 2 
375 1 2 0.589700 6.001000 11.565000 14.358999 # 2 
376 1 1 -1.179400 6.015000 1.422000 21.738998 # 1 
377 1 2 0.589700 6.801000 1.678000 21.256001 # 2 
378 1 2 0.589700 6.029000 0.465000 21.730001 # 2 
379 1 1 -1.179400 6.015000 10.608000 21.738998 # 1 
380 1 2 0.589700 6.017000 10.067999 22.528999 # 2 
381 1 2 0.589700 6.797000 10.334999 21.259998 # 2 
382 1 1 -1.179400 3.695000 4.593000 12.030000 # 1 
383 1 2 0.589700 3.196000 4.321000 12.799999 # 2 
384 1 2 0.589700 3.677000 5.549000 12.058001 # 2 
385 1 1 -1.179400 2.320000 0.000000 19.466999 # 1 
386 1 2 0.589700 2.819000 0.770000 19.739000 # 2 
387 1 2 0.589700 2.338000 0.028000 18.511000 # 2 
388 1 1 -1.179400 2.263000 3.713000 14.240000 # 1 
389 1 2 0.589700 2.781000 3.125000 14.789000 # 2 
390 1 2 0.589700 1.497000 3.196000 13.990999 # 2 
391 1 1 -1.179400 2.263000 3.713000 21.849998 # 1 
392 1 2 0.589700 2.721000 3.994000 22.643002 # 2 
393 1 2 0.589700 1.495000 3.240000 22.172001 # 2 
394 1 1 -1.179400 2.263000 8.317000 14.240000 # 1 
395 1 2 0.589700 1.995000 7.531000 14.716001 # 2 
396 1 2 0.589700 2.753000 7.986000 13.486000 # 2 
397 1 1 -1.179400 2.263000 8.317000 21.849998 # 1 
398 1 2 0.589700 2.807000 8.844000 21.264999 # 2 
399 1 2 0.589700 2.004000 7.563000 21.322001 # 2 
400 1 1 -1.179400 3.752000 2.210000 15.743000 # 1 
401 1 2 0.589700 4.019000 2.686000 16.528999 # 2 
402 1 2 0.589700 3.262000 1.456000 16.074001 # 2 
403 1 1 -1.179400 3.752000 9.820000 15.743000 # 1 
404 1 2 0.589700 4.011000 9.292000 16.497000 # 2 
405 1 2 0.589700 3.208000 9.235000 15.216000 # 2 
406 1 1 -1.179400 3.752000 2.210000 20.347002 # 1 
407 1 2 0.589700 4.518000 1.961000 20.864000 # 2 
408 1 2 0.589700 3.234000 2.759000 20.934999 # 2 
409 1 1 -1.179400 3.752000 9.820000 20.347002 # 1 
410 1 2 0.589700 4.520000 10.142000 20.820000 # 2 
411 1 2 0.589700 3.294000 10.613001 20.066002 # 2 
412 1 1 -1.179400 8.335000 4.593000 12.030000 # 1 
413 1 2 0.589700 8.830000 4.291000 12.792000 # 2 
414 1 2 0.589700 7.545000 4.053000 12.028000 # 2 
415 1 1 -1.179400 9.710000 0.000000 19.466999 # 1 
416 1 2 0.589700 9.215000 0.762000 19.768999 # 2 
417 1 2 0.589700 10.500000 -0.002000 20.007000 # 2 
418 1 1 -1.179400 9.767000 3.713000 14.240000 # 1 
419 1 2 0.589700 10.025999 4.467000 14.768000 # 2 
420 1 2 0.589700 9.223000 3.186000 14.825000 # 2 
421 1 1 -1.179400 9.767000 3.713000 21.849998 # 1 
422 1 2 0.589700 9.277000 4.044000 22.604000 # 2 
423 1 2 0.589700 10.035000 4.499000 21.373999 # 2 
424 1 1 -1.179400 9.767000 8.317000 14.240000 # 1 
425 1 2 0.589700 10.535000 8.790000 13.918000 # 2 
426 1 2 0.589700 9.309000 8.036000 13.447000 # 2 
427 1 1 -1.179400 9.767000 8.317000 21.849998 # 1 
428 1 2 0.589700 10.533000 8.834000 22.099001 # 2 
429 1 2 0.589700 9.248000 8.905000 21.301001 # 2 
430 1 1 -1.179400 8.278000 2.210000 15.743000 # 1 
431 1 2 0.589700 8.736000 1.417000 16.024000 # 2 
432 1 2 0.589700 7.510000 1.888000 15.270000 # 2 
433 1 1 -1.179400 8.278000 9.820000 15.743000 # 1 
434 1 2 0.589700 7.512000 10.069000 15.226001 # 2 
435 1 2 0.589700 8.797000 9.271000 15.155000 # 2 
436 1 1 -1.179400 8.278000 2.210000 20.347002 # 1 
437 1 2 0.589700 8.019000 2.738000 19.593000 # 2 
438 1 2 0.589700 8.822000 2.795000 20.874001 # 2 
439 1 1 -1.179400 8.278000 9.820000 20.347002 # 1 
440 1 2 0.589700 8.768000 10.573999 20.016001 # 2 
441 1 2 0.589700 8.011000 9.344000 19.561001 # 2 
442 1 1 -1.179400 3.006000 6.015000 18.045000 # 1 
443 1 2 0.589700 3.532000 6.814000 18.015999 # 2 
444 1 2 0.589700 2.480000 6.044001 17.246000 # 2 
445 1 1 -1.179400 9.024000 6.015000 18.045000 # 1 
446 1 2 0.589700 9.550000 5.986000 18.844000 # 2 
447 1 2 0.589700 8.498000 5.216000 18.073999 # 2 
448 1 1 -1.179400 1.422000 6.015000 20.366001 # 1 
449 1 2 0.589700 1.964000 6.010000 19.577000 # 2 
450 1 2 0.589700 1.707000 5.245000 20.858000 # 2 
451 1 1 -1.179400 10.608000 6.015000 20.366001 # 1 
452 1 2 0.589700 10.347000 6.789000 20.865000 # 2 
453 1 2 0.589700 11.565000 6.033000 20.376999 # 2 
454 1 1 -1.179400 1.422000 6.015000 15.724000 # 1 
455 1 2 0.589700 0.465000 5.997000 15.713000 # 2 
456 1 2 0.589700 1.683000 5.241000 15.225000 # 2 
457 1 1 -1.179400 10.608000 6.015000 15.724000 # 1 
458 1 2 0.589700 10.066000 6.020000 16.513000 # 2 
459 1 2 0.589700 10.323000 6.785000 15.232000 # 2 
460 1 1 -1.179400 4.593000 3.695000 18.045000 # 1 
461 1 2 0.589700 4.050000 4.483000 18.049999 # 2 
462 1 2 0.589700 4.308000 3.203000 18.815001 # 2 
463 1 1 -1.179400 7.437000 3.695000 18.045000 # 1 
464 1 2 0.589700 6.480000 3.683000 18.027000 # 2 
465 1 2 0.589700 7.698000 3.195000 17.271000 # 2 
466 1 1 -1.179400 4.593000 8.335000 18.045000 # 1 
467 1 2 0.589700 4.332000 8.835000 18.819000 # 2 
468 1 2 0.589700 5.550000 8.347000 18.063000 # 2 
469 1 1 -1.179400 7.437000 8.335000 18.045000 # 1 
470 1 2 0.589700 7.980000 7.547000 18.040001 # 2 
471 1 2 0.589700 7.722000 8.827000 17.275000 # 2 
472 1 1 -1.179400 24.059999 0.000000 3.006000 # 1 
473 1 2 0.589700 23.261002 0.029000 3.532000 # 2 
474 1 2 0.589700 24.031000 0.799000 2.480000 # 2 
475 1 1 -1.179400 24.059999 2.321000 1.422000 # 1 
476 1 2 0.589700 23.274000 2.804000 1.678000 # 2 
477 1 2 0.589700 24.046000 2.329000 0.465000 # 2 
478 1 1 -1.179400 24.059999 2.321000 10.608000 # 1 
479 1 2 0.589700 23.278000 2.800000 10.334999 # 2 
480 1 2 0.589700 24.058001 1.531000 10.067999 # 2 
481 1 1 -1.179400 12.030000 12.030000 9.024000 # 1 
482 1 2 0.589700 12.059000 11.231001 9.550000 # 2 
483 1 2 0.589700 12.829000 12.000999 8.498000 # 2 
484 1 1 -1.179400 14.349999 12.030000 4.593000 # 1 
485 1 2 0.589700 13.559999 12.032000 4.053000 # 2 
486 1 2 0.589700 14.845000 11.268000 4.291000 # 2 
487 1 1 -1.179400 21.740000 12.030000 4.593000 # 1 
488 1 2 0.589700 21.240999 11.260000 4.321000 # 2 
489 1 2 0.589700 21.722000 12.002000 5.549000 # 2 
490 1 1 -1.179400 12.030000 12.030000 3.006000 # 1 
491 1 2 0.589700 11.231001 12.059000 3.532000 # 2 
492 1 2 0.589700 12.000999 12.829000 2.480000 # 2 
493 1 1 -1.179400 12.030000 14.351000 1.422000 # 1 
494 1 2 0.589700 11.244000 14.834000 1.678000 # 2 
495 1 2 0.589700 12.016000 14.358999 0.465000 # 2 
496 1 1 -1.179400 12.030000 14.351000 10.608000 # 1 
497 1 2 0.589700 11.247999 14.830000 10.334999 # 2 
498 1 2 0.589700 12.028000 13.561000 10.067999 # 2 
499 1 1 -1.179400 12.030000 21.738998 1.422000 # 1 
500 1 2 0.589700 12.812000 21.259998 1.695000 # 2 
501 1 2 0.589700 12.032000 22.528999 1.962000 # 2 
502 1 1 -1.179400 12.030000 21.738998 10.608000 # 1 
503 1 2 0.589700 12.816000 21.256001 10.352000 # 2 
504 1 2 0.589700 12.044000 21.730001 11.565000 # 2 
505 1 1 -1.179400 18.045000 21.054001 0.000000 # 1 
506 1 2 0.589700 18.073999 21.580000 0.799000 # 2 
507 1 2 0.589700 18.844000 20.528000 0.029000 # 2 
508 1 1 -1.179400 18.045000 13.452001 2.321000 # 1 
509 1 2 0.589700 17.263000 13.725000 2.800000 # 2 
510 1 2 0.589700 18.042999 13.992000 1.531000 # 2 
511 1 1 -1.179400 18.045000 22.637999 2.321000 # 1 
512 1 2 0.589700 17.259001 22.382000 2.804000 # 2 
513 1 2 0.589700 18.031000 23.594999 2.329000 # 2 
514 1 1 -1.179400 18.045000 13.452001 9.709000 # 1 
515 1 2 0.589700 18.831001 13.708000 9.226000 # 2 
516 1 2 0.589700 18.059000 12.495001 9.700000 # 2 
517 1 1 -1.179400 18.045000 22.637999 9.709000 # 1 
518 1 2 0.589700 18.047001 22.098000 10.499000 # 2 
519 1 2 0.589700 18.827000 22.365000 9.230000 # 2 
520 1 1 -1.179400 15.725000 16.622999 0.000000 # 1 
521 1 2 0.589700 15.226001 16.351000 0.770000 # 2 
522 1 2 0.589700 15.707001 17.579000 0.028000 # 2 
523 1 1 -1.179400 14.349999 12.030000 7.437000 # 1 
524 1 2 0.589700 14.849000 12.799999 7.709000 # 2 
525 1 2 0.589700 14.368000 12.058001 6.481000 # 2 
526 1 1 -1.179400 14.292999 15.743000 2.210000 # 1 
527 1 2 0.589700 14.811000 15.155000 2.759000 # 2 
528 1 2 0.589700 13.527000 15.226001 1.961000 # 2 
529 1 1 -1.179400 14.292999 15.743000 9.820000 # 1 
530 1 2 0.589700 14.751000 16.024000 10.613001 # 2 
531 1 2 0.589700 13.525000 15.270000 10.142000 # 2 
532 1 1 -1.179400 14.292999 20.347002 2.210000 # 1 
533 1 2 0.589700 14.025001 19.561001 2.686000 # 2 
534 1 2 0.589700 14.783000 20.016001 1.456000 # 2 
535 1 1 -1.179400 14.292999 20.347002 9.820000 # 1 
536 1 2 0.589700 14.837000 20.874001 9.235000 # 2 
537 1 2 0.589700 14.033999 19.593000 9.292000 # 2 
538 1 1 -1.179400 15.782000 14.240000 3.713000 # 1 
539 1 2 0.589700 16.049000 14.716001 4.499000 # 2 
540 1 2 0.589700 15.292000 13.486000 4.044000 # 2 
541 1 1 -1.179400 15.782000 21.849998 3.713000 # 1 
542 1 2 0.589700 16.041000 21.322001 4.467000 # 2 
543 1 2 0.589700 15.238000 21.264999 3.186000 # 2 
544 1 1 -1.179400 15.782000 14.240000 8.317000 # 1 
545 1 2 0.589700 16.548000 13.990999 8.834000 # 2 
546 1 2 0.589700 15.264000 14.789000 8.905000 # 2 
547 1 1 -1.179400 15.782000 21.849998 8.317000 # 1 
548 1 2 0.589700 16.549999 22.172001 8.790000 # 2 
549 1 2 0.589700 15.324000 22.643002 8.036000 # 2 
550 1 1 -1.179400 20.365000 16.622999 0.000000 # 1 
551 1 2 0.589700 20.860001 16.320999 0.762000 # 2 
552 1 2 0.589700 19.575001 16.083000 -0.002000 # 2 
553 1 1 -1.179400 21.740000 12.030000 7.437000 # 1 
554 1 2 0.589700 21.245001 12.792000 7.739000 # 2 
555 1 2 0.589700 22.530001 12.028000 7.977000 # 2 
556 1 1 -1.179400 21.797001 15.743000 2.210000 # 1 
557 1 2 0.589700 22.056000 16.497000 2.738000 # 2 
558 1 2 0.589700 21.252998 15.216000 2.795000 # 2 
559 1 1 -1.179400 21.797001 15.743000 9.820000 # 1 
560 1 2 0.589700 21.307001 16.074001 10.573999 # 2 
561 1 2 0.589700 22.065001 16.528999 9.344000 # 2 
562 1 1 -1.179400 21.797001 20.347002 2.210000 # 1 
563 1 2 0.589700 22.565001 20.820000 1.888000 # 2 
564 1 2 0.589700 21.338999 20.066002 1.417000 # 2 
565 1 1 -1.179400 21.797001 20.347002 9.820000 # 1 
566 1 2 0.589700 22.563000 20.864000 10.069000 # 2 
567 1 2 0.589700 21.278000 20.934999 9.271000 # 2 
568 1 1 -1.179400 20.308001 14.240000 3.713000 # 1 
569 1 2 0.589700 20.766001 13.447000 3.994000 # 2 
570 1 2 0.589700 19.540001 13.918000 3.240000 # 2 
571 1 1 -1.179400 20.308001 21.849998 3.713000 # 1 
572 1 2 0.589700 19.542000 22.099001 3.196000 # 2 
573 1 2 0.589700 20.827000 21.301001 3.125000 # 2 
574 1 1 -1.179400 20.308001 14.240000 8.317000 # 1 
575 1 2 0.589700 20.049000 14.768000 7.563000 # 2 
576 1 2 0.589700 20.852001 14.825000 8.844000 # 2 
577 1 1 -1.179400 20.308001 21.849998 8.317000 # 1 
578 1 2 0.589700 20.797998 22.604000 7.986000 # 2 
579 1 2 0.589700 20.041000 21.373999 7.531000 # 2 
580 1 1 -1.179400 15.036000 18.045000 6.015000 # 1 
581 1 2 0.589700 15.562000 18.844000 5.986000 # 2 
582 1 2 0.589700 14.510000 18.073999 5.216000 # 2 
583 1 1 -1.179400 21.054001 18.045000 6.015000 # 1 
584 1 2 0.589700 21.580000 18.015999 6.814000 # 2 
585 1 2 0.589700 20.528000 17.246000 6.044001 # 2 
586 1 1 -1.179400 13.452001 18.045000 8.336000 # 1 
587 1 2 0.589700 13.993999 18.040001 7.547000 # 2 
588 1 2 0.589700 13.737000 17.275000 8.828000 # 2 
589 1 1 -1.179400 22.637999 18.045000 8.336000 # 1 
590 1 2 0.589700 22.376999 18.819000 8.835000 # 2 
591 1 2 0.589700 23.594999 18.063000 8.347000 # 2 
592 1 1 -1.179400 13.452001 18.045000 3.694000 # 1 
593 1 2 0.589700 12.495001 18.027000 3.683000 # 2 
594 1 2 0.589700 13.712999 17.271000 3.195000 # 2 
595 1 1 -1.179400 22.637999 18.045000 3.694000 # 1 
596 1 2 0.589700 22.096001 18.049999 4.483000 # 2 
597 1 2 0.589700 22.353001 18.815001 3.202000 # 2 
598 1 1 -1.179400 16.622999 15.725000 6.015000 # 1 
599 1 2 0.589700 16.080000 16.513000 6.020000 # 2 
600 1 2 0.589700 16.338001 15.233001 6.785000 # 2 
601 1 1 -1.179400 19.466999 15.725000 6.015000 # 1 
602 1 2 0.589700 18.510000 15.713000 5.997000 # 2 
603 1 2 0.589700 19.728001 15.225000 5.241000 # 2 
604 1 1 -1.179400 16.622999 20.365000 6.015000 # 1 
605 1 2 0.589700 16.362000 20.865000 6.789000 # 2 
606 1 2 0.589700 17.580000 20.376999 6.033000 # 2 
607 1 1 -1.179400 19.466999 20.365000 6.015000 # 1 
608 1 2 0.589700 20.009998 19.577000 6.010000 # 2 
609 1 2 0.589700 19.752001 20.857000 5.245000 # 2 
610 1 1 -1.179400 18.045000 3.006000 12.030000 # 1 
611 1 2 0.589700 18.015999 2.480000 11.231001 # 2 
612 1 2 0.589700 17.246000 3.532000 12.000999 # 2 
613 1 1 -1.179400 15.725000 7.437000 12.030000 # 1 
614 1 2 0.589700 16.514999 7.977000 12.032000 # 2 
615 1 2 0.589700 15.230000 7.739000 11.268000 # 2 
616 1 1 -1.179400 20.365000 7.437000 12.030000 # 1 
617 1 2 0.589700 20.864000 7.709000 11.260000 # 2 
618 1 2 0.589700 20.382999 6.481000 12.002000 # 2 
619 1 1 -1.179400 12.030000 0.000000 15.036000 # 1 
620 1 2 0.589700 11.231001 0.029000 15.562000 # 2 
621 1 2 0.589700 12.000999 0.799000 14.510000 # 2 
622 1 1 -1.179400 12.030000 2.321000 13.452001 # 1 
623 1 2 0.589700 11.244000 2.804000 13.708000 # 2 
624 1 2 0.589700 12.016000 2.329000 12.495001 # 2 
625 1 1 -1.179400 12.030000 2.321000 22.637999 # 1 
626 1 2 0.589700 11.247999 2.800000 22.365000 # 2 
627 1 2 0.589700 12.028000 1.531000 22.098000 # 2 
628 1 1 -1.179400 12.030000 9.709000 13.452001 # 1 
629 1 2 0.589700 12.812000 9.230000 13.725000 # 2 
630 1 2 0.589700 12.032000 10.499000 13.992000 # 2 
631 1 1 -1.179400 12.030000 9.709000 22.637999 # 1 
632 1 2 0.589700 12.816000 9.226000 22.382000 # 2 
633 1 2 0.589700 12.044000 9.700000 23.594999 # 2 
634 1 1 -1.179400 18.045000 9.024000 12.030000 # 1 
635 1 2 0.589700 18.073999 9.550000 12.829000 # 2 
636 1 2 0.589700 18.844000 8.498000 12.059000 # 2 
637 1 1 -1.179400 18.045000 1.422000 14.351000 # 1 
638 1 2 0.589700 17.263000 1.695000 14.830000 # 2 
639 1 2 0.589700 18.042999 1.962000 13.561000 # 2 
640 1 1 -1.179400 18.045000 10.608000 14.351000 # 1 
641 1 2 0.589700 17.259001 10.352000 14.834000 # 2 
642 1 2 0.589700 18.031000 11.565000 14.358999 # 2 
643 1 1 -1.179400 18.045000 1.422000 21.738998 # 1 
644 1 2 0.589700 18.831001 1.678000 21.256001 # 2 
645 1 2 0.589700 18.059000 0.465000 21.730001 # 2 
646 1 1 -1.179400 18.045000 10.608000 21.738998 # 1 
647 1 2 0.589700 18.047001 10.067999 22.528999 # 2 
648 1 2 0.589700 18.827000 10.334999 21.259998 # 2 
649 1 1 -1.179400 15.725000 4.593000 12.030000 # 1 
650 1 2 0.589700 15.226001 4.321000 12.799999 # 2 
651 1 2 0.589700 15.707001 5.549000 12.058001 # 2 
652 1 1 -1.179400 14.349999 0.000000 19.466999 # 1 
653 1 2 0.589700 14.849000 0.770000 19.739000 # 2 
654 1 2 0.589700 14.368000 0.028000 18.511000 # 2 
655 1 1 -1.179400 14.292999 3.713000 14.240000 # 1 
656 1 2 0.589700 14.811000 3.125000 14.789000 # 2 
657 1 2 0.589700 13.527000 3.196000 13.990999 # 2 
658 1 1 -1.179400 14.292999 3.713000 21.849998 # 1 
659 1 2 0.589700 14.751000 3.994000 22.643002 # 2 
660 1 2 0.589700 13.525000 3.240000 22.172001 # 2 
661 1 1 -1.179400 14.292999 8.317000 14.240000 # 1 
662 1 2 0.589700 14.025001 7.531000 14.716001 # 2 
663 1 2 0.589700 14.783000 7.986000 13.486000 # 2 
664 1 1 -1.179400 14.292999 8.317000 21.849998 # 1 
665 1 2 0.589700 14.837000 8.844000 21.264999 # 2 
666 1 2 0.589700 14.033999 7.563000 21.322001 # 2 
667 1 1 -1.179400 15.782000 2.210000 15.743000 # 1 
668 1 2 0.589700 16.049000 2.686000 16.528999 # 2 
669 1 2 0.589700 15.292000 1.456000 16.074001 # 2 
670 1 1 -1.179400 15.782000 9.820000 15.743000 # 1 
671 1 2 0.589700 16.041000 9.292000 16.497000 # 2 
672 1 2 0.589700 15.238000 9.235000 15.216000 # 2 
673 1 1 -1.179400 15.782000 2.210000 20.347002 # 1 
674 1 2 0.589700 16.548000 1.961000 20.864000 # 2 
675 1 2 0.589700 15.264000 2.759000 20.934999 # 2 
676 1 1 -1.179400 15.782000 9.820000 20.347002 # 1 
677 1 2 0.589700 16.549999 10.142000 20.820000 # 2 
678 1 2 0.589700 15.324000 10.613001 20.066002 # 2 
679 1 1 -1.179400 20.365000 4.593000 12.030000 # 1 
680 1 2 0.589700 20.860001 4.291000 12.792000 # 2 
681 1 2 0.589700 19.575001 4.053000 12.028000 # 2 
682 1 1 -1.179400 21.740000 0.000000 19.466999 # 1 
683 1 2 0.589700 21.245001 0.762000 19.768999 # 2 
684 1 2 0.589700 22.530001 -0.002000 20.007000 # 2 
685 1 1 -1.179400 21.797001 3.713000 14.240000 # 1 
686 1 2 0.589700 22.056000 4.467000 14.768000 # 2 
687 1 2 0.589700 21.252998 3.186000 14.825000 # 2 
688 1 1 -1.179400 21.797001 3.713000 21.849998 # 1 
689 1 2 0.589700 21.307001 4.044000 22.604000 # 2 
690 1 2 0.589700 22.065001 4.499000 21.373999 # 2 
691 1 1 -1.179400 21.797001 8.317000 14.240000 # 1 
692 1 2 0.589700 22.565001 8.790000 13.918000 # 2 
693 1 2 0.589700 21.338999 8.036000 13.447000 # 2 
694 1 1 -1.179400 21.797001 8.317000 21.849998 # 1 
695 1 2 0.589700 22.563000 8.834000 22.099001 # 2 
696 1 2 0.589700 21.278000 8.905000 21.301001 # 2 
697 1 1 -1.179400 20.308001 2.210000 15.743000 # 1 
698 1 2 0.589700 20.766001 1.417000 16.024000 # 2 
699 1 2 0.589700 19.540001 1.888000 15.270000 # 2 
700 1 1 -1.179400 20.308001 9.820000 15.743000 # 1 
701 1 2 0.589700 19.542000 10.069000 15.226001 # 2 
702 1 2 0.589700 20.827000 9.271000 15.155000 # 2 
703 1 1 -1.179400 20.308001 2.210000 20.347002 # 1 
704 1 2 0.589700 20.049000 2.738000 19.593000 # 2 
705 1 2 0.589700 20.852001 2.795000 20.874001 # 2 
706 1 1 -1.179400 20.308001 9.820000 20.347002 # 1 
707 1 2 0.589700 20.797998 10.573999 20.016001 # 2 
708 1 2 0.589700 20.041000 9.344000 19.561001 # 2 
709 1 1 -1.179400 15.036000 6.015000 18.045000 # 1 
710 1 2 0.589700 15.562000 6.814000 18.015999 # 2 
711 1 2 0.589700 14.510000 6.044001 17.246000 # 2 
712 1 1 -1.179400 21.054001 6.015000 18.045000 # 1 
713 1 2 0.589700 21.580000 5.986000 18.844000 # 2 
714 1 2 0.589700 20.528000 5.216000 18.073999 # 2 
715 1 1 -1.179400 13.452001 6.015000 20.366001 # 1 
716 1 2 0.589700 13.993999 6.010000 19.577000 # 2 
717 1 2 0.589700 13.737000 5.245000 20.858000 # 2 
718 1 1 -1.179400 22.637999 6.015000 20.366001 # 1 
719 1 2 0.589700 22.376999 6.789000 20.865000 # 2 
720 1 2 0.589700 23.594999 6.033000 20.376999 # 2 
721 1 1 -1.179400 13.452001 6.015000 15.724000 # 1 
722 1 2 0.589700 12.495001 5.997000 15.713000 # 2 
723 1 2 0.589700 13.712999 5.241000 15.225000 # 2 
724 1 1 -1.179400 22.637999 6.015000 15.724000 # 1 
725 1 2 0.589700 22.096001 6.020000 16.513000 # 2 
726 1 2 0.589700 22.353001 6.785000 15.232000 # 2 
727 1 1 -1.179400 16.622999 3.695000 18.045000 # 1 
728 1 2 0.589700 16.080000 4.483000 18.049999 # 2 
729 1 2 0.589700 16.338001 3.203000 18.815001 # 2 
730 1 1 -1.179400 19.466999 3.695000 18.045000 # 1 
731 1 2 0.589700 18.510000 3.683000 18.027000 # 2 
732 1 2 0.589700 19.728001 3.195000 17.271000 # 2 
733 1 1 -1.179400 16.622999 8.335000 18.045000 # 1 
734 1 2 0.589700 16.362000 8.835000 18.819000 # 2 
735 1 2 0.589700 17.580000 8.347000 18.063000 # 2 
736 1 1 -1.179400 19.466999 8.335000 18.045000 # 1 
737 1 2 0.589700 20.009998 7.547000 18.040001 # 2 
738 1 2 0.589700 19.752001 8.827000 17.275000 # 2 
739 1 1 -1.179400 0.000000 24.059999 9.024000 # 1 
740 1 2 0.589700 0.029000 23.261002 9.550000 # 2 
741 1 2 0.589700 0.799000 24.031000 8.498000 # 2 
742 1 1 -1.179400 2.320000 24.059999 4.593000 # 1 
743 1 2 0.589700 1.530000 24.062000 4.053000 # 2 
744 1 2 0.589700 2.815000 23.297998 4.291000 # 2 
745 1 1 -1.179400 9.710000 24.059999 4.593000 # 1 
746 1 2 0.589700 9.211000 23.290001 4.321000 # 2 
747 1 2 0.589700 9.692000 24.032000 5.549000 # 2 
748 1 1 -1.179400 6.015000 15.036000 12.030000 # 1 
749 1 2 0.589700 5.986000 14.510000 11.231001 # 2 
750 1 2 0.589700 5.216000 15.562000 12.000999 # 2 
751 1 1 -1.179400 3.695000 19.466999 12.030000 # 1 
752 1 2 0.589700 4.485000 20.007000 12.032000 # 2 
753 1 2 0.589700 3.200000 19.768999 11.268000 # 2 
754 1 1 -1.179400 8.335000 19.466999 12.030000 # 1 
755 1 2 0.589700 8.834000 19.739000 11.260000 # 2 
756 1 2 0.589700 8.353000 18.511000 12.002000 # 2 
757 1 1 -1.179400 0.000000 12.030000 21.054001 # 1 
758 1 2 0.589700 0.029000 11.231001 21.580000 # 2 
759 1 2 0.589700 0.799000 12.000999 20.528000 # 2 
760 1 1 -1.179400 2.320000 12.030000 16.622999 # 1 
761 1 2 0.589700 1.530000 12.032000 16.083000 # 2 
762 1 2 0.589700 2.815000 11.268000 16.320999 # 2 
763 1 1 -1.179400 9.710000 12.030000 16.622999 # 1 
764 1 2 0.589700 9.211000 11.260000 16.351000 # 2 
765 1 2 0.589700 9.692000 12.002000 17.579000 # 2 
766 1 1 -1.179400 0.000000 21.738998 13.452001 # 1 
767 1 2 0.589700 0.782000 21.259998 13.725000 # 2 
768 1 2 0.589700 0.002000 22.528999 13.992000 # 2 
769 1 1 -1.179400 0.000000 21.738998 22.637999 # 1 
770 1 2 0.589700 0.786000 21.256001 22.382000 # 2 
771 1 2 0.589700 0.014000 21.730001 23.594999 # 2 
772 1 1 -1.179400 6.015000 21.054001 12.030000 # 1 
773 1 2 0.589700 6.044001 21.580000 12.829000 # 2 
774 1 2 0.589700 6.814000 20.528000 12.059000 # 2 
775 1 1 -1.179400 6.015000 13.452001 14.351000 # 1 
776 1 2 0.589700 5.233000 13.725000 14.830000 # 2 
777 1 2 0.589700 6.013000 13.992000 13.561000 # 2 
778 1 1 -1.179400 6.015000 22.637999 14.351000 # 1 
779 1 2 0.589700 5.229000 22.382000 14.834000 # 2 
780 1 2 0.589700 6.001000 23.594999 14.358999 # 2 
781 1 1 -1.179400 6.015000 13.452001 21.738998 # 1 
782 1 2 0.589700 6.801000 13.708000 21.256001 # 2 
783 1 2 0.589700 6.029000 12.495001 21.730001 # 2 
784 1 1 -1.179400 6.015000 22.637999 21.738998 # 1 
785 1 2 0.589700 6.017000 22.098000 22.528999 # 2 
786 1 2 0.589700 6.797000 22.365000 21.259998 # 2 
787 1 1 -1.179400 3.695000 16.622999 12.030000 # 1 
788 1 2 0.589700 3.196000 16.351000 12.799999 # 2 
789 1 2 0.589700 3.677000 17.579000 12.058001 # 2 
790 1 1 -1.179400 2.320000 12.030000 19.466999 # 1 
791 1 2 0.589700 2.819000 12.799999 19.739000 # 2 
792 1 2 0.589700 2.338000 12.058001 18.511000 # 2 
793 1 1 -1.179400 2.263000 15.743000 14.240000 # 1 
794 1 2 0.589700 2.781000 15.155000 14.789000 # 2 
795 1 2 0.589700 1.497000 15.226001 13.990999 # 2 
796 1 1 -1.179400 2.263000 15.743000 21.849998 # 1 
797 1 2 0.589700 2.721000 16.024000 22.643002 # 2 
798 1 2 0.589700 1.495000 15.270000 22.172001 # 2 
799 1 1 -1.179400 2.263000 20.347002 14.240000 # 1 
800 1 2 0.589700 1.995000 19.561001 14.716001 # 2 
801 1 2 0.589700 2.753000 20.016001 13.486000 # 2 
802 1 1 -1.179400 2.263000 20.347002 21.849998 # 1 
803 1 2 0.589700 2.807000 20.874001 21.264999 # 2 
804 1 2 0.589700 2.004000 19.593000 21.322001 # 2 
805 1 1 -1.179400 3.752000 14.240000 15.743000 # 1 
806 1 2 0.589700 4.019000 14.716001 16.528999 # 2 
807 1 2 0.589700 3.262000 13.486000 16.074001 # 2 
808 1 1 -1.179400 3.752000 21.849998 15.743000 # 1 
809 1 2 0.589700 4.011000 21.322001 16.497000 # 2 
810 1 2 0.589700 3.208000 21.264999 15.216000 # 2 
811 1 1 -1.179400 3.752000 14.240000 20.347002 # 1 
812 1 2 0.589700 4.518000 13.990999 20.864000 # 2 
813 1 2 0.589700 3.234000 14.789000 20.934999 # 2 
814 1 1 -1.179400 3.752000 21.849998 20.347002 # 1 
815 1 2 0.589700 4.520000 22.172001 20.820000 # 2 
816 1 2 0.589700 3.294000 22.643002 20.066002 # 2 
817 1 1 -1.179400 8.335000 16.622999 12.030000 # 1 
818 1 2 0.589700 8.830000 16.320999 12.792000 # 2 
819 1 2 0.589700 7.545000 16.083000 12.028000 # 2 
820 1 1 -1.179400 9.710000 12.030000 19.466999 # 1 
821 1 2 0.589700 9.215000 12.792000 19.768999 # 2 
822 1 2 0.589700 10.500000 12.028000 20.007000 # 2 
823 1 1 -1.179400 9.767000 15.743000 14.240000 # 1 
824 1 2 0.589700 10.025999 16.497000 14.768000 # 2 
825 1 2 0.589700 9.223000 15.216000 14.825000 # 2 
826 1 1 -1.179400 9.767000 15.743000 21.849998 # 1 
827 1 2 0.589700 9.277000 16.074001 22.604000 # 2 
828 1 2 0.589700 10.035000 16.528999 21.373999 # 2 
829 1 1 -1.179400 9.767000 20.347002 14.240000 # 1 
830 1 2 0.589700 10.535000 20.820000 13.918000 # 2 
831 1 2 0.589700 9.309000 20.066002 13.447000 # 2 
832 1 1 -1.179400 9.767000 20.347002 21.849998 # 1 
833 1 2 0.589700 10.533000 20.864000 22.099001 # 2 
834 1 2 0.589700 9.248000 20.934999 21.301001 # 2 
835 1 1 -1.179400 8.278000 14.240000 15.743000 # 1 
836 1 2 0.589700 8.736000 13.447000 16.024000 # 2 
837 1 2 0.589700 7.510000 13.918000 15.270000 # 2 
838 1 1 -1.179400 8.278000 21.849998 15.743000 # 1 
839 1 2 0.589700 7.512000 22.099001 15.226001 # 2 
840 1 2 0.589700 8.797000 21.301001 15.155000 # 2 
841 1 1 -1.179400 8.278000 14.240000 20.347002 # 1 
842 1 2 0.589700 8.019000 14.768000 19.593000 # 2 
843 1 2 0.589700 8.822000 14.825000 20.874001 # 2 
844 1 1 -1.179400 8.278000 21.849998 20.347002 # 1 
845 1 2 0.589700 8.768000 22.604000 20.016001 # 2 
846 1 2 0.589700 8.011000 21.373999 19.561001 # 2 
847 1 1 -1.179400 3.006000 18.045000 18.045000 # 1 
848 1 2 0.589700 3.532000 18.844000 18.015999 # 2 
849 1 2 0.589700 2.480000 18.073999 17.246000 # 2 
850 1 1 -1.179400 9.024000 18.045000 18.045000 # 1 
851 1 2 0.589700 9.550000 18.015999 18.844000 # 2 
852 1 2 0.589700 8.498000 17.246000 18.073999 # 2 
853 1 1 -1.179400 1.422000 18.045000 20.366001 # 1 
854 1 2 0.589700 1.964000 18.040001 19.577000 # 2 
855 1 2 0.589700 1.707000 17.275000 20.858000 # 2 
856 1 1 -1.179400 10.608000 18.045000 20.366001 # 1 
857 1 2 0.589700 10.347000 18.819000 20.865000 # 2 
858 1 2 0.589700 11.565000 18.063000 20.376999 # 2 
859 1 1 -1.179400 1.422000 18.045000 15.724000 # 1 
860 1 2 0.589700 0.465000 18.027000 15.713000 # 2 
861 1 2 0.589700 1.683000 17.271000 15.225000 # 2 
862 1 1 -1.179400 10.608000 18.045000 15.724000 # 1 
863 1 2 0.589700 10.066000 18.049999 16.513000 # 2 
864 1 2 0.589700 10.323000 18.815001 15.232000 # 2 
865 1 1 -1.179400 4.593000 15.725000 18.045000 # 1 
866 1 2 0.589700 4.050000 16.513000 18.049999 # 2 
867 1 2 0.589700 4.308000 15.233001 18.815001 # 2 
868 1 1 -1.179400 7.437000 15.725000 18.045000 # 1 
869 1 2 0.589700 6.480000 15.713000 18.027000 # 2 
870 1 2 0.589700 7.698000 15.225000 17.271000 # 2 
871 1 1 -1.179400 4.593000 20.365000 18.045000 # 1 
872 1 2 0.589700 4.332000 20.865000 18.819000 # 2 
873 1 2 0.589700 5.550000 20.376999 18.063000 # 2 
874 1 1 -1.179400 7.437000 20.365000 18.045000 # 1 
875 1 2 0.589700 7.980000 19.577000 18.040001 # 2 
876 1 2 0.589700 7.722000 20.857000 17.275000 # 2 
877 1 1 -1.179400 24.059999 12.030000 3.006000 # 1 
878 1 2 0.589700 23.261002 12.059000 3.532000 # 2 
879 1 2 0.589700 24.031000 12.829000 2.480000 # 2 
880 1 1 -1.179400 24.059999 14.351000 1.422000 # 1 
881 1 2 0.589700 23.274000 14.834000 1.678000 # 2 
882 1 2 0.589700 24.046000 14.358999 0.465000 # 2 
883 1 1 -1.179400 24.059999 14.351000 10.608000 # 1 
884 1 2 0.589700 23.278000 14.830000 10.334999 # 2 
885 1 2 0.589700 24.058001 13.561000 10.067999 # 2 
886 1 1 -1.179400 12.030000 24.059999 9.024000 # 1 
887 1 2 0.589700 12.059000 23.261002 9.550000 # 2 
888 1 2 0.589700 12.829000 24.031000 8.498000 # 2 
889 1 1 -1.179400 14.349999 24.059999 4.593000 # 1 
890 1 2 0.589700 13.559999 24.062000 4.053000 # 2 
891 1 2 0.589700 14.845000 23.297998 4.291000 # 2 
892 1 1 -1.179400 21.740000 24.059999 4.593000 # 1 
893 1 2 0.589700 21.240999 23.290001 4.321000 # 2 
894 1 2 0.589700 21.722000 24.032000 5.549000 # 2 
895 1 1 -1.179400 18.045000 15.036000 12.030000 # 1 
896 1 2 0.589700 18.015999 14.510000 11.231001 # 2 
897 1 2 0.589700 17.246000 15.562000 12.000999 # 2 
898 1 1 -1.179400 15.725000 19.466999 12.030000 # 1 
899 1 2 0.589700 16.514999 20.007000 12.032000 # 2 
900 1 2 0.589700 15.230000 19.768999 11.268000 # 2 
901 1 1 -1.179400 20.365000 19.466999 12.030000 # 1 
902 1 2 0.589700 20.864000 19.739000 11.260000 # 2 
903 1 2 0.589700 20.382999 18.511000 12.002000 # 2 
904 1 1 -1.179400 12.030000 12.030000 21.054001 # 1 
905 1 2 0.589700 12.059000 11.231001 21.580000 # 2 
906 1 2 0.589700 12.829000 12.000999 20.528000 # 2 
907 1 1 -1.179400 14.349999 12.030000 16.622999 # 1 
908 1 2 0.589700 13.559999 12.032000 16.083000 # 2 
909 1 2 0.589700 14.845000 11.268000 16.320999 # 2 
910 1 1 -1.179400 21.740000 12.030000 16.622999 # 1 
911 1 2 0.589700 21.240999 11.260000 16.351000 # 2 
912 1 2 0.589700 21.722000 12.002000 17.579000 # 2 
913 1 1 -1.179400 12.030000 12.030000 15.036000 # 1 
914 1 2 0.589700 11.231001 12.059000 15.562000 # 2 
915 1 2 0.589700 12.000999 12.829000 14.510000 # 2 
916 1 1 -1.179400 12.030000 14.351000 13.452001 # 1 
917 1 2 0.589700 11.244000 14.834000 13.708000 # 2 
918 1 2 0.589700 12.016000 14.358999 12.495001 # 2 
919 1 1 -1.179400 12.030000 14.351000 22.637999 # 1 
920 1 2 0.589700 11.247999 14.830000 22.365000 # 2 
921 1 2 0.589700 12.028000 13.561000 22.098000 # 2 
922 1 1 -1.179400 12.030000 21.738998 13.452001 # 1 
923 1 2 0.589700 12.812000 21.259998 13.725000 # 2 
924 1 2 0.589700 12.032000 22.528999 13.992000 # 2 
925 1 1 -1.179400 12.030000 21.738998 22.637999 # 1 
926 1 2 0.589700 12.816000 21.256001 22.382000 # 2 
927 1 2 0.589700 12.044000 21.730001 23.594999 # 2 
928 1 1 -1.179400 18.045000 21.054001 12.030000 # 1 
929 1 2 0.589700 18.073999 21.580000 12.829000 # 2 
930 1 2 0.589700 18.844000 20.528000 12.059000 # 2 
931 1 1 -1.179400 18.045000 13.452001 14.351000 # 1 
932 1 2 0.589700 17.263000 13.725000 14.830000 # 2 
933 1 2 0.589700 18.042999 13.992000 13.561000 # 2 
934 1 1 -1.179400 18.045000 22.637999 14.351000 # 1 
935 1 2 0.589700 17.259001 22.382000 14.834000 # 2 
936 1 2 0.589700 18.031000 23.594999 14.358999 # 2 
937 1 1 -1.179400 18.045000 13.452001 21.738998 # 1 
938 1 2 0.589700 18.831001 13.708000 21.256001 # 2 
939 1 2 0.589700 18.059000 12.495001 21.730001 # 2 
940 1 1 -1.179400 18.045000 22.637999 21.738998 # 1 
941 1 2 0.589700 18.047001 22.098000 22.528999 # 2 
942 1 2 0.589700 18.827000 22.365000 21.259998 # 2 
943 1 1 -1.179400 15.725000 16.622999 12.030000 # 1 
944 1 2 0.589700 15.226001 16.351000 12.799999 # 2 
945 1 2 0.589700 15.707001 17.579000 12.058001 # 2 
946 1 1 -1.179400 14.349999 12.030000 19.466999 # 1 
947 1 2 0.589700 14.849000 12.799999 19.739000 # 2 
948 1 2 0.589700 14.368000 12.058001 18.511000 # 2 
949 1 1 -1.179400 14.292999 15.743000 14.240000 # 1 
950 1 2 0.589700 14.811000 15.155000 14.789000 # 2 
951 1 2 0.589700 13.527000 15.226001 13.990999 # 2 
952 1 1 -1.179400 14.292999 15.743000 21.849998 # 1 
953 1 2 0.589700 14.751000 16.024000 22.643002 # 2 
954 1 2 0.589700 13.525000 15.270000 22.172001 # 2 
955 1 1 -1.179400 14.292999 20.347002 14.240000 # 1 
956 1 2 0.589700 14.025001 19.561001 14.716001 # 2 
957 1 2 0.589700 14.783000 20.016001 13.486000 # 2 
958 1 1 -1.179400 14.292999 20.347002 21.849998 # 1 
959 1 2 0.589700 14.837000 20.874001 21.264999 # 2 
960 1 2 0.589700 14.033999 19.593000 21.322001 # 2 
961 1 1 -1.179400 15.782000 14.240000 15.743000 # 1 
962 1 2 0.589700 16.049000 14.716001 16.528999 # 2 
963 1 2 0.589700 15.292000 13.486000 16.074001 # 2 
964 1 1 -1.179400 15.782000 21.849998 15.743000 # 1 
965 1 2 0.589700 16.041000 21.322001 16.497000 # 2 
966 1 2 0.589700 15.238000 21.264999 15.216000 # 2 
967 1 1 -1.179400 15.782000 14.240000 20.347002 # 1 
968 1 2 0.589700 16.548000 13.990999 20.864000 # 2 
969 1 2 0.589700 15.264000 14.789000 20.934999 # 2 
970 1 1 -1.179400 15.782000 21.849998 20.347002 # 1 
971 1 2 0.589700 16.549999 22.172001 20.820000 # 2 
972 1 2 0.589700 15.324000 22.643002 20.066002 # 2 
973 1 1 -1.179400 20.365000 16.622999 12.030000 # 1 
974 1 2 0.589700 20.860001 16.320999 12.792000 # 2 
975 1 2 0.589700 19.575001 16.083000 12.028000 # 2 
976 1 1 -1.179400 21.740000 12.030000 19.466999 # 1 
977 1 2 0.589700 21.245001 12.792000 19.768999 # 2 
978 1 2 0.589700 22.530001 12.028000 20.007000 # 2 
979 1 1 -1.179400 21.797001 15.743000 14.240000 # 1 
980 1 2 0.589700 22.056000 16.497000 14.768000 # 2 
981 1 2 0.589700 21.252998 15.216000 14.825000 # 2 
982 1 1 -1.179400 21.797001 15.743000 21.849998 # 1 
983 1 2 0.589700 21.307001 16.074001 22.604000 # 2 
984 1 2 0.589700 22.065001 16.528999 21.373999 # 2 
985 1 1 -1.179400 21.797001 20.347002 14.240000 # 1 
986 1 2 0.589700 22.565001 20.820000 13.918000 # 2 
987 1 2 0.589700 21.338999 20.066002 13.447000 # 2 
988 1 1 -1.179400 21.797001 20.347002 21.849998 # 1 
989 1 2 0.589700 22.563000 20.864000 22.099001 # 2 
990 1 2 0.589700 21.278000 20.934999 21.301001 # 2 
991 1 1 -1.179400 20.308001 14.240000 15.743000 # 1 
992 1 2 0.589700 20.766001 13.447000 16.024000 # 2 
993 1 2 0.589700 19.540001 13.918000 15.270000 # 2 
994 1 1 -1.179400 20.308001 21.849998 15.743000 # 1 
995 1 2 0.589700 19.542000 22.099001 15.226001 # 2 
996 1 2 0.589700 20.827000 21.301001 15.155000 # 2 
997 1 1 -1.179400 20.308001 14.240000 20.347002 # 1 
998 1 2 0.589700 20.049000 14.768000 19.593000 # 2 
999 1 2 0.589700 20.852001 14.825000 20.874001 # 2 
1000 1 1 -1.179400 20.308001 21.849998 20.347002 # 1 
1001 1 2 0.589700 20.797998 22.604000 20.016001 # 2 
1002 1 2 0.589700 20.041000 21.373999 19.561001 # 2 
1003 1 1 -1.179400 15.036000 18.045000 18.045000 # 1 
1004 1 2 0.589700 15.562000 18.844000 18.015999 # 2 
1005 1 2 0.589700 14.510000 18.073999 17.246000 # 2 
1006 1 1 -1.179400 21.054001 18.045000 18.045000 # 1 
1007 1 2 0.589700 21.580000 18.015999 18.844000 # 2 
1008 1 2 0.589700 20.528000 17.246000 18.073999 # 2 
1009 1 1 -1.179400 13.452001 18.045000 20.366001 # 1 
1010 1 2 0.589700 13.993999 18.040001 19.577000 # 2 
1011 1 2 0.589700 13.737000 17.275000 20.858000 # 2 
1012 1 1 -1.179400 22.637999 18.045000 20.366001 # 1 
1013 1 2 0.589700 22.376999 18.819000 20.865000 # 2 
1014 1 2 0.589700 23.594999 18.063000 20.376999 # 2 
1015 1 1 -1.179400 13.452001 18.045000 15.724000 # 1 
1016 1 2 0.589700 12.495001 18.027000 15.713000 # 2 
1017 1 2 0.589700 13.712999 17.271000 15.225000 # 2 
1018 1 1 -1.179400 22.637999 18.045000 15.724000 # 1 
1019 1 2 0.589700 22.096001 18.049999 16.513000 # 2 
1020 1 2 0.589700 22.353001 18.815001 15.232000 # 2 
1021 1 1 -1.179400 16.622999 15.725000 18.045000 # 1 
1022 1 2 0.589700 16.080000 16.513000 18.049999 # 2 
1023 1 2 0.589700 16.338001 15.233001 18.815001 # 2 
1024 1 1 -1.179400 19.466999 15.725000 18.045000 # 1 
1025 1 2 0.589700 18.510000 15.713000 18.027000 # 2 
1026 1 2 0.589700 19.728001 15.225000 17.271000 # 2 
1027 1 1 -1.179400 16.622999 20.365000 18.045000 # 1 
1028 1 2 0.589700 16.362000 20.865000 18.819000 # 2 
1029 1 2 0.589700 17.580000 20.376999 18.063000 # 2 
1030 1 1 -1.179400 19.466999 20.365000 18.045000 # 1 
1031 1 2 0.589700 20.009998 19.577000 18.040001 # 2 
1032 1 2 0.589700 19.752001 20.857000 17.275000 # 2 
1033 1 1 -1.179400 6.015000 3.006000 24.059999 # 1 
1034 1 2 0.589700 5.986000 2.480000 23.261002 # 2 
1035 1 2 0.589700 5.216000 3.532000 24.031000 # 2 
1036 1 1 -1.179400 3.695000 7.437000 24.059999 # 1 
1037 1 2 0.589700 4.485000 7.977000 24.062000 # 2 
1038 1 2 0.589700 3.200000 7.739000 23.297998 # 2 
1039 1 1 -1.179400 8.335000 7.437000 24.059999 # 1 
1040 1 2 0.589700 8.834000 7.709000 23.290001 # 2 
1041 1 2 0.589700 8.353000 6.481000 24.032000 # 2 
1042 1 1 -1.179400 24.059999 0.000000 15.036000 # 1 
1043 1 2 0.589700 23.261002 0.029000 15.562000 # 2 
1044 1 2 0.589700 24.031000 0.799000 14.510000 # 2 
1045 1 1 -1.179400 24.059999 2.321000 13.452001 # 1 
1046 1 2 0.589700 23.274000 2.804000 13.708000 # 2 
1047 1 2 0.589700 24.046000 2.329000 12.495001 # 2 
1048 1 1 -1.179400 24.059999 2.321000 22.637999 # 1 
1049 1 2 0.589700 23.278000 2.800000 22.365000 # 2 
1050 1 2 0.589700 24.058001 1.531000 22.098000 # 2 
1051 1 1 -1.179400 18.045000 3.006000 24.059999 # 1 
1052 1 2 0.589700 18.015999 2.480000 23.261002 # 2 
1053 1 2 0.589700 17.246000 3.532000 24.031000 # 2 
1054 1 1 -1.179400 15.725000 7.437000 24.059999 # 1 
1055 1 2 0.589700 16.514999 7.977000 24.062000 # 2 
1056 1 2 0.589700 15.230000 7.739000 23.297998 # 2 
1057 1 1 -1.179400 20.365000 7.437000 24.059999 # 1 
1058 1 2 0.589700 20.864000 7.709000 23.290001 # 2 
1059 1 2 0.589700 20.382999 6.481000 24.032000 # 2 
1060 1 1 -1.179400 0.000000 24.059999 21.054001 # 1 
1061 1 2 0.589700 0.029000 23.261002 21.580000 # 2 
1062 1 2 0.589700 0.799000 24.031000 20.528000 # 2 
1063 1 1 -1.179400 2.320000 24.059999 16.622999 # 1 
1064 1 2 0.589700 1.530000 24.062000 16.083000 # 2 
1065 1 2 0.589700 2.815000 23.297998 16.320999 # 2 
1066 1 1 -1.179400 9.710000 24.059999 16.622999 # 1 
1067 1 2 0.589700 9.211000 23.290001 16.351000 # 2 
1068 1 2 0.589700 9.692000 24.032000 17.579000 # 2 
1069 1 1 -1.179400 6.015000 15.036000 24.059999 # 1 
1070 1 2 0.589700 5.986000 14.510000 23.261002 # 2 
1071 1 2 0.589700 5.216000 15.562000 24.031000 # 2 
1072 1 1 -1.179400 3.695000 19.466999 24.059999 # 1 
1073 1 2 0.589700 4.485000 20.007000 24.062000 # 2 
1074 1 2 0.589700 3.200000 19.768999 23.297998 # 2 
1075 1 1 -1.179400 8.335000 19.466999 24.059999 # 1 
1076 1 2 0.589700 8.834000 19.739000 23.290001 # 2 
1077 1 2 0.589700 8.353000 18.511000 24.032000 # 2 
1078 1 1 -1.179400 24.059999 12.030000 15.036000 # 1 
1079 1 2 0.589700 23.261002 12.059000 15.562000 # 2 
1080 1 2 0.589700 24.031000 12.829000 14.510000 # 2 
1081 1 1 -1.179400 24.059999 14.351000 13.452001 # 1 
1082 1 2 0.589700 23.274000 14.834000 13.708000 # 2 
1083 1 2 0.589700 24.046000 14.358999 12.495001 # 2 
1084 1 1 -1.179400 24.059999 14.351000 22.637999 # 1 
1085 1 2 0.589700 23.278000 14.830000 22.365000 # 2 
1086 1 2 0.589700 24.058001 13.561000 22.098000 # 2 
1087 1 1 -1.179400 12.030000 24.059999 21.054001 # 1 
1088 1 2 0.589700 12.059000 23.261002 21.580000 # 2 
1089 1 2 0.589700 12.829000 24.031000 20.528000 # 2 
1090 1 1 -1.179400 14.349999 24.059999 16.622999 # 1 
1091 1 2 0.589700 13.559999 24.062000 16.083000 # 2 
1092 1 2 0.589700 14.845000 23.297998 16.320999 # 2 
1093 1 1 -1.179400 21.740000 24.059999 16.622999 # 1 
1094 1 2 0.589700 21.240999 23.290001 16.351000 # 2 
1095 1 2 0.589700 21.722000 24.032000 17.579000 # 2 
1096 1 1 -1.179400 18.045000 15.036000 24.059999 # 1 
1097 1 2 0.589700 18.015999 14.510000 23.261002 # 2 
1098 1 2 0.589700 17.246000 15.562000 24.031000 # 2 
1099 1 1 -1.179400 15.725000 19.466999 24.059999 # 1 
1100 1 2 0.589700 16.514999 20.007000 24.062000 # 2 
1101 1 2 0.589700 15.230000 19.768999 23.297998 # 2 
1102 1 1 -1.179400 20.365000 19.466999 24.059999 # 1 
1103 1 2 0.589700 20.864000 19.739000 23.290001 # 2 
1104 1 2 0.589700 20.382999 18.511000 24.032000 # 2 
1105 1 1 -1.179400 36.090000 0.000000 3.006000 # 1 
1106 1 2 0.589700 35.291000 0.029000 3.532000 # 2 
1107 1 2 0.589700 36.061001 0.799000 2.480000 # 2 
1108 1 1 -1.179400 36.090000 2.321000 1.422000 # 1 
1109 1 2 0.589700 35.304001 2.804000 1.678000 # 2 
1110 1 2 0.589700 36.076000 2.329000 0.465000 # 2 
1111 1 1 -1.179400 36.090000 2.321000 10.608000 # 1 
1112 1 2 0.589700 35.308002 2.800000 10.334999 # 2 
1113 1 2 0.589700 36.087997 1.531000 10.067999 # 2 
1114 1 1 -1.179400 36.090000 9.709000 1.422000 # 1 
1115 1 2 0.589700 36.872002 9.230000 1.695000 # 2 
1116 1 2 0.589700 36.091999 10.499000 1.962000 # 2 
1117 1 1 -1.179400 36.090000 9.709000 10.608000 # 1 
1118 1 2 0.589700 36.875999 9.226000 10.352000 # 2 
1119 1 2 0.589700 36.104000 9.700000 11.565000 # 2 
1120 1 1 -1.179400 42.104996 9.024000 0.000000 # 1 
1121 1 2 0.589700 42.133999 9.550000 0.799000 # 2 
1122 1 2 0.589700 42.903999 8.498000 0.029000 # 2 
1123 1 1 -1.179400 42.104996 1.422000 2.321000 # 1 
1124 1 2 0.589700 41.322998 1.695000 2.800000 # 2 
1125 1 2 0.589700 42.103001 1.962000 1.531000 # 2 
1126 1 1 -1.179400 42.104996 10.608000 2.321000 # 1 
1127 1 2 0.589700 41.319000 10.352000 2.804000 # 2 
1128 1 2 0.589700 42.090996 11.565000 2.329000 # 2 
1129 1 1 -1.179400 42.104996 1.422000 9.709000 # 1 
1130 1 2 0.589700 42.891003 1.678000 9.226000 # 2 
1131 1 2 0.589700 42.118996 0.465000 9.700000 # 2 
1132 1 1 -1.179400 42.104996 10.608000 9.709000 # 1 
1133 1 2 0.589700 42.107002 10.067999 10.499000 # 2 
1134 1 2 0.589700 42.887001 10.334999 9.230000 # 2 
1135 1 1 -1.179400 39.785000 4.593000 0.000000 # 1 
1136 1 2 0.589700 39.285999 4.321000 0.770000 # 2 
1137 1 2 0.589700 39.767002 5.549000 0.028000 # 2 
1138 1 1 -1.179400 38.410000 0.000000 7.437000 # 1 
1139 1 2 0.589700 38.909000 0.770000 7.709000 # 2 
1140 1 2 0.589700 38.427998 0.028000 6.481000 # 2 
1141 1 1 -1.179400 38.353001 3.713000 2.210000 # 1 
1142 1 2 0.589700 38.870998 3.125000 2.759000 # 2 
1143 1 2 0.589700 37.586998 3.196000 1.961000 # 2 
1144 1 1 -1.179400 38.353001 3.713000 9.820000 # 1 
1145 1 2 0.589700 38.811001 3.994000 10.613001 # 2 
1146 1 2 0.589700 37.584999 3.240000 10.142000 # 2 
1147 1 1 -1.179400 38.353001 8.317000 2.210000 # 1 
1148 1 2 0.589700 38.084999 7.531000 2.686000 # 2 
1149 1 2 0.589700 38.842999 7.986000 1.456000 # 2 
1150 1 1 -1.179400 38.353001 8.317000 9.820000 # 1 
1151 1 2 0.589700 38.896999 8.844000 9.235000 # 2 
1152 1 2 0.589700 38.094002 7.563000 9.292000 # 2 
1153 1 1 -1.179400 39.841999 2.210000 3.713000 # 1 
1154 1 2 0.589700 40.109001 2.686000 4.499000 # 2 
1155 1 2 0.589700 39.352001 1.456000 4.044000 # 2 
1156 1 1 -1.179400 39.841999 9.820000 3.713000 # 1 
1157 1 2 0.589700 40.100998 9.292000 4.467000 # 2 
1158 1 2 0.589700 39.298000 9.235000 3.186000 # 2 
1159 1 1 -1.179400 39.841999 2.210000 8.317000 # 1 
1160 1 2 0.589700 40.608002 1.961000 8.834000 # 2 
1161 1 2 0.589700 39.324001 2.759000 8.905000 # 2 
1162 1 1 -1.179400 39.841999 9.820000 8.317000 # 1 
1163 1 2 0.589700 40.610001 10.142000 8.790000 # 2 
1164 1 2 0.589700 39.383999 10.613001 8.036000 # 2 
1165 1 1 -1.179400 44.425003 4.593000 0.000000 # 1 
1166 1 2 0.589700 44.920002 4.291000 0.762000 # 2 
1167 1 2 0.589700 43.635002 4.053000 -0.002000 # 2 
1168 1 1 -1.179400 45.799999 0.000000 7.437000 # 1 
1169 1 2 0.589700 45.305000 0.762000 7.739000 # 2 
1170 1 2 0.589700 46.590000 -0.002000 7.977000 # 2 
1171 1 1 -1.179400 45.857002 3.713000 2.210000 # 1 
1172 1 2 0.589700 46.115997 4.467000 2.738000 # 2 
1173 1 2 0.589700 45.313000 3.186000 2.795000 # 2 
1174 1 1 -1.179400 45.857002 3.713000 9.820000 # 1 
1175 1 2 0.589700 45.367004 4.044000 10.573999 # 2 
1176 1 2 0.589700 46.125000 4.499000 9.344000 # 2 
1177 1 1 -1.179400 45.857002 8.317000 2.210000 # 1 
1178 1 2 0.589700 46.625000 8.790000 1.888000 # 2 
1179 1 2 0.589700 45.398998 8.036000 1.417000 # 2 
1180 1 1 -1.179400 45.857002 8.317000 9.820000 # 1 
1181 1 2 0.589700 46.623001 8.834000 10.069000 # 2 
1182 1 2 0.589700 45.338001 8.905000 9.271000 # 2 
1183 1 1 -1.179400 44.368000 2.210000 3.713000 # 1 
1184 1 2 0.589700 44.826004 1.417000 3.994000 # 2 
1185 1 2 0.589700 43.600002 1.888000 3.240000 # 2 
1186 1 1 -1.179400 44.368000 9.820000 3.713000 # 1 
1187 1 2 0.589700 43.601997 10.069000 3.196000 # 2 
1188 1 2 0.589700 44.887001 9.271000 3.125000 # 2 
1189 1 1 -1.179400 44.368000 2.210000 8.317000 # 1 
1190 1 2 0.589700 44.109001 2.738000 7.563000 # 2 
1191 1 2 0.589700 44.911999 2.795000 8.844000 # 2 
1192 1 1 -1.179400 44.368000 9.820000 8.317000 # 1 
1193 1 2 0.589700 44.857998 10.573999 7.986000 # 2 
1194 1 2 0.589700 44.100998 9.344000 7.531000 # 2 
1195 1 1 -1.179400 39.096001 6.015000 6.015000 # 1 
1196 1 2 0.589700 39.621998 6.814000 5.986000 # 2 
1197 1 2 0.589700 38.570000 6.044001 5.216000 # 2 
1198 1 1 -1.179400 45.114002 6.015000 6.015000 # 1 
1199 1 2 0.589700 45.639999 5.986000 6.814000 # 2 
1200 1 2 0.589700 44.587997 5.216000 6.044001 # 2 
1201 1 1 -1.179400 37.512001 6.015000 8.336000 # 1 
1202 1 2 0.589700 38.054001 6.010000 7.547000 # 2 
1203 1 2 0.589700 37.797001 5.245000 8.828000 # 2 
1204 1 1 -1.179400 46.697998 6.015000 8.336000 # 1 
1205 1 2 0.589700 46.437000 6.789000 8.835000 # 2 
1206 1 2 0.589700 47.654999 6.033000 8.347000 # 2 
1207 1 1 -1.179400 37.512001 6.015000 3.694000 # 1 
1208 1 2 0.589700 36.555000 5.997000 3.683000 # 2 
1209 1 2 0.589700 37.772999 5.241000 3.195000 # 2 
1210 1 1 -1.179400 46.697998 6.015000 3.694000 # 1 
1211 1 2 0.589700 46.156002 6.020000 4.483000 # 2 
1212 1 2 0.589700 46.413002 6.785000 3.202000 # 2 
1213 1 1 -1.179400 40.682999 3.695000 6.015000 # 1 
1214 1 2 0.589700 40.139999 4.483000 6.020000 # 2 
1215 1 2 0.589700 40.398003 3.203000 6.785000 # 2 
1216 1 1 -1.179400 43.526997 3.695000 6.015000 # 1 
1217 1 2 0.589700 42.570000 3.683000 5.997000 # 2 
1218 1 2 0.589700 43.787998 3.195000 5.241000 # 2 
1219 1 1 -1.179400 40.682999 8.335000 6.015000 # 1 
1220 1 2 0.589700 40.422001 8.835000 6.789000 # 2 
1221 1 2 0.589700 41.639999 8.347000 6.033000 # 2 
1222 1 1 -1.179400 43.526997 8.335000 6.015000 # 1 
1223 1 2 0.589700 44.070000 7.547000 6.010000 # 2 
1224 1 2 0.589700 43.811996 8.827000 5.245000 # 2 
1225 1 1 -1.179400 24.059999 12.030000 9.024000 # 1 
1226 1 2 0.589700 24.089001 11.231001 9.550000 # 2 
1227 1 2 0.589700 24.858999 12.000999 8.498000 # 2 
1228 1 1 -1.179400 26.380001 12.030000 4.593000 # 1 
1229 1 2 0.589700 25.590000 12.032000 4.053000 # 2 
1230 1 2 0.589700 26.875000 11.268000 4.291000 # 2 
1231 1 1 -1.179400 33.770000 12.030000 4.593000 # 1 
1232 1 2 0.589700 33.271000 11.260000 4.321000 # 2 
1233 1 2 0.589700 33.751999 12.002000 5.549000 # 2 
1234 1 1 -1.179400 24.059999 21.738998 1.422000 # 1 
1235 1 2 0.589700 24.841999 21.259998 1.695000 # 2 
1236 1 2 0.589700 24.062000 22.528999 1.962000 # 2 
1237 1 1 -1.179400 24.059999 21.738998 10.608000 # 1 
1238 1 2 0.589700 24.846001 21.256001 10.352000 # 2 
1239 1 2 0.589700 24.073999 21.730001 11.565000 # 2 
1240 1 1 -1.179400 30.074999 21.054001 0.000000 # 1 
1241 1 2 0.589700 30.104000 21.580000 0.799000 # 2 
1242 1 2 0.589700 30.874001 20.528000 0.029000 # 2 
1243 1 1 -1.179400 30.074999 13.452001 2.321000 # 1 
1244 1 2 0.589700 29.293001 13.725000 2.800000 # 2 
1245 1 2 0.589700 30.072998 13.992000 1.531000 # 2 
1246 1 1 -1.179400 30.074999 22.637999 2.321000 # 1 
1247 1 2 0.589700 29.289000 22.382000 2.804000 # 2 
1248 1 2 0.589700 30.060999 23.594999 2.329000 # 2 
1249 1 1 -1.179400 30.074999 13.452001 9.709000 # 1 
1250 1 2 0.589700 30.861000 13.708000 9.226000 # 2 
1251 1 2 0.589700 30.088999 12.495001 9.700000 # 2 
1252 1 1 -1.179400 30.074999 22.637999 9.709000 # 1 
1253 1 2 0.589700 30.077000 22.098000 10.499000 # 2 
1254 1 2 0.589700 30.857000 22.365000 9.230000 # 2 
1255 1 1 -1.179400 27.755001 16.622999 0.000000 # 1 
1256 1 2 0.589700 27.256001 16.351000 0.770000 # 2 
1257 1 2 0.589700 27.737000 17.579000 0.028000 # 2 
1258 1 1 -1.179400 26.380001 12.030000 7.437000 # 1 
1259 1 2 0.589700 26.879002 12.799999 7.709000 # 2 
1260 1 2 0.589700 26.398001 12.058001 6.481000 # 2 
1261 1 1 -1.179400 26.322998 15.743000 2.210000 # 1 
1262 1 2 0.589700 26.841000 15.155000 2.759000 # 2 
1263 1 2 0.589700 25.557001 15.226001 1.961000 # 2 
1264 1 1 -1.179400 26.322998 15.743000 9.820000 # 1 
1265 1 2 0.589700 26.781002 16.024000 10.613001 # 2 
1266 1 2 0.589700 25.555000 15.270000 10.142000 # 2 
1267 1 1 -1.179400 26.322998 20.347002 2.210000 # 1 
1268 1 2 0.589700 26.055000 19.561001 2.686000 # 2 
1269 1 2 0.589700 26.813000 20.016001 1.456000 # 2 
1270 1 1 -1.179400 26.322998 20.347002 9.820000 # 1 
1271 1 2 0.589700 26.867001 20.874001 9.235000 # 2 
1272 1 2 0.589700 26.063999 19.593000 9.292000 # 2 
1273 1 1 -1.179400 27.812000 14.240000 3.713000 # 1 
1274 1 2 0.589700 28.078999 14.716001 4.499000 # 2 
1275 1 2 0.589700 27.321999 13.486000 4.044000 # 2 
1276 1 1 -1.179400 27.812000 21.849998 3.713000 # 1 
1277 1 2 0.589700 28.071001 21.322001 4.467000 # 2 
1278 1 2 0.589700 27.268000 21.264999 3.186000 # 2 
1279 1 1 -1.179400 27.812000 14.240000 8.317000 # 1 
1280 1 2 0.589700 28.577999 13.990999 8.834000 # 2 
1281 1 2 0.589700 27.293999 14.789000 8.905000 # 2 
1282 1 1 -1.179400 27.812000 21.849998 8.317000 # 1 
1283 1 2 0.589700 28.580000 22.172001 8.790000 # 2 
1284 1 2 0.589700 27.354000 22.643002 8.036000 # 2 
1285 1 1 -1.179400 32.395000 16.622999 0.000000 # 1 
1286 1 2 0.589700 32.889999 16.320999 0.762000 # 2 
1287 1 2 0.589700 31.605000 16.083000 -0.002000 # 2 
1288 1 1 -1.179400 33.770000 12.030000 7.437000 # 1 
1289 1 2 0.589700 33.275002 12.792000 7.739000 # 2 
1290 1 2 0.589700 34.560001 12.028000 7.977000 # 2 
1291 1 1 -1.179400 33.827000 15.743000 2.210000 # 1 
1292 1 2 0.589700 34.086002 16.497000 2.738000 # 2 
1293 1 2 0.589700 33.283001 15.216000 2.795000 # 2 
1294 1 1 -1.179400 33.827000 15.743000 9.820000 # 1 
1295 1 2 0.589700 33.336998 16.074001 10.573999 # 2 
1296 1 2 0.589700 34.094997 16.528999 9.344000 # 2 
1297 1 1 -1.179400 33.827000 20.347002 2.210000 # 1 
1298 1 2 0.589700 34.595001 20.820000 1.888000 # 2 
1299 1 2 0.589700 33.368999 20.066002 1.417000 # 2 
1300 1 1 -1.179400 33.827000 20.347002 9.820000 # 1 
1301 1 2 0.589700 34.593002 20.864000 10.069000 # 2 
1302 1 2 0.589700 33.307999 20.934999 9.271000 # 2 
1303 1 1 -1.179400 32.337997 14.240000 3.713000 # 1 
1304 1 2 0.589700 32.795998 13.447000 3.994000 # 2 
1305 1 2 0.589700 31.570000 13.918000 3.240000 # 2 
1306 1 1 -1.179400 32.337997 21.849998 3.713000 # 1 
1307 1 2 0.589700 31.572001 22.099001 3.196000 # 2 
1308 1 2 0.589700 32.857002 21.301001 3.125000 # 2 
1309 1 1 -1.179400 32.337997 14.240000 8.317000 # 1 
1310 1 2 0.589700 32.079002 14.768000 7.563000 # 2 
1311 1 2 0.589700 32.882000 14.825000 8.844000 # 2 
1312 1 1 -1.179400 32.337997 21.849998 8.317000 # 1 
1313 1 2 0.589700 32.827999 22.604000 7.986000 # 2 
1314 1 2 0.589700 32.070999 21.373999 7.531000 # 2 
1315 1 1 -1.179400 27.066000 18.045000 6.015000 # 1 
1316 1 2 0.589700 27.592001 18.844000 5.986000 # 2 
1317 1 2 0.589700 26.540001 18.073999 5.216000 # 2 
1318 1 1 -1.179400 33.084000 18.045000 6.015000 # 1 
1319 1 2 0.589700 33.610001 18.015999 6.814000 # 2 
1320 1 2 0.589700 32.557999 17.246000 6.044001 # 2 
1321 1 1 -1.179400 25.481998 18.045000 8.336000 # 1 
1322 1 2 0.589700 26.024000 18.040001 7.547000 # 2 
1323 1 2 0.589700 25.767000 17.275000 8.828000 # 2 
1324 1 1 -1.179400 34.667999 18.045000 8.336000 # 1 
1325 1 2 0.589700 34.407001 18.819000 8.835000 # 2 
1326 1 2 0.589700 35.625000 18.063000 8.347000 # 2 
1327 1 1 -1.179400 25.481998 18.045000 3.694000 # 1 
1328 1 2 0.589700 24.525002 18.027000 3.683000 # 2 
1329 1 2 0.589700 25.743000 17.271000 3.195000 # 2 
1330 1 1 -1.179400 34.667999 18.045000 3.694000 # 1 
1331 1 2 0.589700 34.125999 18.049999 4.483000 # 2 
1332 1 2 0.589700 34.382999 18.815001 3.202000 # 2 
1333 1 1 -1.179400 28.653000 15.725000 6.015000 # 1 
1334 1 2 0.589700 28.110001 16.513000 6.020000 # 2 
1335 1 2 0.589700 28.368000 15.233001 6.785000 # 2 
1336 1 1 -1.179400 31.497000 15.725000 6.015000 # 1 
1337 1 2 0.589700 30.539999 15.713000 5.997000 # 2 
1338 1 2 0.589700 31.758001 15.225000 5.241000 # 2 
1339 1 1 -1.179400 28.653000 20.365000 6.015000 # 1 
1340 1 2 0.589700 28.392000 20.865000 6.789000 # 2 
1341 1 2 0.589700 29.610001 20.376999 6.033000 # 2 
1342 1 1 -1.179400 31.497000 20.365000 6.015000 # 1 
1343 1 2 0.589700 32.040001 19.577000 6.010000 # 2 
1344 1 2 0.589700 31.782000 20.857000 5.245000 # 2 
1345 1 1 -1.179400 24.059999 9.709000 1.422000 # 1 
1346 1 2 0.589700 24.841999 9.230000 1.695000 # 2 
1347 1 2 0.589700 24.062000 10.499000 1.962000 # 2 
1348 1 1 -1.179400 24.059999 9.709000 10.608000 # 1 
1349 1 2 0.589700 24.846001 9.226000 10.352000 # 2 
1350 1 2 0.589700 24.073999 9.700000 11.565000 # 2 
1351 1 1 -1.179400 30.074999 9.024000 0.000000 # 1 
1352 1 2 0.589700 30.104000 9.550000 0.799000 # 2 
1353 1 2 0.589700 30.874001 8.498000 0.029000 # 2 
1354 1 1 -1.179400 30.074999 1.422000 2.321000 # 1 
1355 1 2 0.589700 29.293001 1.695000 2.800000 # 2 
1356 1 2 0.589700 30.072998 1.962000 1.531000 # 2 
1357 1 1 -1.179400 30.074999 10.608000 2.321000 # 1 
1358 1 2 0.589700 29.289000 10.352000 2.804000 # 2 
1359 1 2 0.589700 30.060999 11.565000 2.329000 # 2 
1360 1 1 -1.179400 30.074999 1.422000 9.709000 # 1 
1361 1 2 0.589700 30.861000 1.678000 9.226000 # 2 
1362 1 2 0.589700 30.088999 0.465000 9.700000 # 2 
1363 1 1 -1.179400 30.074999 10.608000 9.709000 # 1 
1364 1 2 0.589700 30.077000 10.067999 10.499000 # 2 
1365 1 2 0.589700 30.857000 10.334999 9.230000 # 2 
1366 1 1 -1.179400 27.755001 4.593000 0.000000 # 1 
1367 1 2 0.589700 27.256001 4.321000 0.770000 # 2 
1368 1 2 0.589700 27.737000 5.549000 0.028000 # 2 
1369 1 1 -1.179400 26.380001 0.000000 7.437000 # 1 
1370 1 2 0.589700 26.879002 0.770000 7.709000 # 2 
1371 1 2 0.589700 26.398001 0.028000 6.481000 # 2 
1372 1 1 -1.179400 26.322998 3.713000 2.210000 # 1 
1373 1 2 0.589700 26.841000 3.125000 2.759000 # 2 
1374 1 2 0.589700 25.557001 3.196000 1.961000 # 2 
1375 1 1 -1.179400 26.322998 3.713000 9.820000 # 1 
1376 1 2 0.589700 26.781002 3.994000 10.613001 # 2 
1377 1 2 0.589700 25.555000 3.240000 10.142000 # 2 
1378 1 1 -1.179400 26.322998 8.317000 2.210000 # 1 
1379 1 2 0.589700 26.055000 7.531000 2.686000 # 2 
1380 1 2 0.589700 26.813000 7.986000 1.456000 # 2 
1381 1 1 -1.179400 26.322998 8.317000 9.820000 # 1 
1382 1 2 0.589700 26.867001 8.844000 9.235000 # 2 
1383 1 2 0.589700 26.063999 7.563000 9.292000 # 2 
1384 1 1 -1.179400 27.812000 2.210000 3.713000 # 1 
1385 1 2 0.589700 28.078999 2.686000 4.499000 # 2 
1386 1 2 0.589700 27.321999 1.456000 4.044000 # 2 
1387 1 1 -1.179400 27.812000 9.820000 3.713000 # 1 
1388 1 2 0.589700 28.071001 9.292000 4.467000 # 2 
1389 1 2 0.589700 27.268000 9.235000 3.186000 # 2 
1390 1 1 -1.179400 27.812000 2.210000 8.317000 # 1 
1391 1 2 0.589700 28.577999 1.961000 8.834000 # 2 
1392 1 2 0.589700 27.293999 2.759000 8.905000 # 2 
1393 1 1 -1.179400 27.812000 9.820000 8.317000 # 1 
1394 1 2 0.589700 28.580000 10.142000 8.790000 # 2 
1395 1 2 0.589700 27.354000 10.613001 8.036000 # 2 
1396 1 1 -1.179400 32.395000 4.593000 0.000000 # 1 
1397 1 2 0.589700 32.889999 4.291000 0.762000 # 2 
1398 1 2 0.589700 31.605000 4.053000 -0.002000 # 2 
1399 1 1 -1.179400 33.770000 0.000000 7.437000 # 1 
1400 1 2 0.589700 33.275002 0.762000 7.739000 # 2 
1401 1 2 0.589700 34.560001 -0.002000 7.977000 # 2 
1402 1 1 -1.179400 33.827000 3.713000 2.210000 # 1 
1403 1 2 0.589700 34.086002 4.467000 2.738000 # 2 
1404 1 2 0.589700 33.283001 3.186000 2.795000 # 2 
1405 1 1 -1.179400 33.827000 3.713000 9.820000 # 1 
1406 1 2 0.589700 33.336998 4.044000 10.573999 # 2 
1407 1 2 0.589700 34.094997 4.499000 9.344000 # 2 
1408 1 1 -1.179400 33.827000 8.317000 2.210000 # 1 
1409 1 2 0.589700 34.595001 8.790000 1.888000 # 2 
1410 1 2 0.589700 33.368999 8.036000 1.417000 # 2 
1411 1 1 -1.179400 33.827000 8.317000 9.820000 # 1 
1412 1 2 0.589700 34.593002 8.834000 10.069000 # 2 
1413 1 2 0.589700 33.307999 8.905000 9.271000 # 2 
1414 1 1 -1.179400 32.337997 2.210000 3.713000 # 1 
1415 1 2 0.589700 32.795998 1.417000 3.994000 # 2 
1416 1 2 0.589700 31.570000 1.888000 3.240000 # 2 
1417 1 1 -1.179400 32.337997 9.820000 3.713000 # 1 
1418 1 2 0.589700 31.572001 10.069000 3.196000 # 2 
1419 1 2 0.589700 32.857002 9.271000 3.125000 # 2 
1420 1 1 -1.179400 32.337997 2.210000 8.317000 # 1 
1421 1 2 0.589700 32.079002 2.738000 7.563000 # 2 
1422 1 2 0.589700 32.882000 2.795000 8.844000 # 2 
1423 1 1 -1.179400 32.337997 9.820000 8.317000 # 1 
1424 1 2 0.589700 32.827999 10.573999 7.986000 # 2 
1425 1 2 0.589700 32.070999 9.344000 7.531000 # 2 
1426 1 1 -1.179400 27.066000 6.015000 6.015000 # 1 
1427 1 2 0.589700 27.592001 6.814000 5.986000 # 2 
1428 1 2 0.589700 26.540001 6.044001 5.216000 # 2 
1429 1 1 -1.179400 33.084000 6.015000 6.015000 # 1 
1430 1 2 0.589700 33.610001 5.986000 6.814000 # 2 
1431 1 2 0.589700 32.557999 5.216000 6.044001 # 2 
1432 1 1 -1.179400 25.481998 6.015000 8.336000 # 1 
1433 1 2 0.589700 26.024000 6.010000 7.547000 # 2 
1434 1 2 0.589700 25.767000 5.245000 8.828000 # 2 
1435 1 1 -1.179400 34.667999 6.015000 8.336000 # 1 
1436 1 2 0.589700 34.407001 6.789000 8.835000 # 2 
1437 1 2 0.589700 35.625000 6.033000 8.347000 # 2 
1438 1 1 -1.179400 25.481998 6.015000 3.694000 # 1 
1439 1 2 0.589700 24.525002 5.997000 3.683000 # 2 
1440 1 2 0.589700 25.743000 5.241000 3.195000 # 2 
1441 1 1 -1.179400 34.667999 6.015000 3.694000 # 1 
1442 1 2 0.589700 34.125999 6.020000 4.483000 # 2 
1443 1 2 0.589700 34.382999 6.785000 3.202000 # 2 
1444 1 1 -1.179400 28.653000 3.695000 6.015000 # 1 
1445 1 2 0.589700 28.110001 4.483000 6.020000 # 2 
1446 1 2 0.589700 28.368000 3.203000 6.785000 # 2 
1447 1 1 -1.179400 31.497000 3.695000 6.015000 # 1 
1448 1 2 0.589700 30.539999 3.683000 5.997000 # 2 
1449 1 2 0.589700 31.758001 3.195000 5.241000 # 2 
1450 1 1 -1.179400 28.653000 8.335000 6.015000 # 1 
1451 1 2 0.589700 28.392000 8.835000 6.789000 # 2 
1452 1 2 0.589700 29.610001 8.347000 6.033000 # 2 
1453 1 1 -1.179400 31.497000 8.335000 6.015000 # 1 
1454 1 2 0.589700 32.040001 7.547000 6.010000 # 2 
1455 1 2 0.589700 31.782000 8.827000 5.245000 # 2 
1456 1 1 -1.179400 30.074999 3.006000 12.030000 # 1 
1457 1 2 0.589700 30.046001 2.480000 11.231001 # 2 
1458 1 2 0.589700 29.275999 3.532000 12.000999 # 2 
1459 1 1 -1.179400 27.755001 7.437000 12.030000 # 1 
1460 1 2 0.589700 28.545000 7.977000 12.032000 # 2 
1461 1 2 0.589700 27.260000 7.739000 11.268000 # 2 
1462 1 1 -1.179400 32.395000 7.437000 12.030000 # 1 
1463 1 2 0.589700 32.893997 7.709000 11.260000 # 2 
1464 1 2 0.589700 32.412998 6.481000 12.002000 # 2 
1465 1 1 -1.179400 24.059999 9.709000 13.452001 # 1 
1466 1 2 0.589700 24.841999 9.230000 13.725000 # 2 
1467 1 2 0.589700 24.062000 10.499000 13.992000 # 2 
1468 1 1 -1.179400 24.059999 9.709000 22.637999 # 1 
1469 1 2 0.589700 24.846001 9.226000 22.382000 # 2 
1470 1 2 0.589700 24.073999 9.700000 23.594999 # 2 
1471 1 1 -1.179400 30.074999 9.024000 12.030000 # 1 
1472 1 2 0.589700 30.104000 9.550000 12.829000 # 2 
1473 1 2 0.589700 30.874001 8.498000 12.059000 # 2 
1474 1 1 -1.179400 30.074999 1.422000 14.351000 # 1 
1475 1 2 0.589700 29.293001 1.695000 14.830000 # 2 
1476 1 2 0.589700 30.072998 1.962000 13.561000 # 2 
1477 1 1 -1.179400 30.074999 10.608000 14.351000 # 1 
1478 1 2 0.589700 29.289000 10.352000 14.834000 # 2 
1479 1 2 0.589700 30.060999 11.565000 14.358999 # 2 
1480 1 1 -1.179400 30.074999 1.422000 21.738998 # 1 
1481 1 2 0.589700 30.861000 1.678000 21.256001 # 2 
1482 1 2 0.589700 30.088999 0.465000 21.730001 # 2 
1483 1 1 -1.179400 30.074999 10.608000 21.738998 # 1 
1484 1 2 0.589700 30.077000 10.067999 22.528999 # 2 
1485 1 2 0.589700 30.857000 10.334999 21.259998 # 2 
1486 1 1 -1.179400 27.755001 4.593000 12.030000 # 1 
1487 1 2 0.589700 27.256001 4.321000 12.799999 # 2 
1488 1 2 0.589700 27.737000 5.549000 12.058001 # 2 
1489 1 1 -1.179400 26.380001 0.000000 19.466999 # 1 
1490 1 2 0.589700 26.879002 0.770000 19.739000 # 2 
1491 1 2 0.589700 26.398001 0.028000 18.511000 # 2 
1492 1 1 -1.179400 26.322998 3.713000 14.240000 # 1 
1493 1 2 0.589700 26.841000 3.125000 14.789000 # 2 
1494 1 2 0.589700 25.557001 3.196000 13.990999 # 2 
1495 1 1 -1.179400 26.322998 3.713000 21.849998 # 1 
1496 1 2 0.589700 26.781002 3.994000 22.643002 # 2 
1497 1 2 0.589700 25.555000 3.240000 22.172001 # 2 
1498 1 1 -1.179400 26.322998 8.317000 14.240000 # 1 
1499 1 2 0.589700 26.055000 7.531000 14.716001 # 2 
1500 1 2 0.589700 26.813000 7.986000 13.486000 # 2 
1501 1 1 -1.179400 26.322998 8.317000 21.849998 # 1 
1502 1 2 0.589700 26.867001 8.844000 21.264999 # 2 
1503 1 2 0.589700 26.063999 7.563000 21.322001 # 2 
1504 1 1 -1.179400 27.812000 2.210000 15.743000 # 1 
1505 1 2 0.589700 28.078999 2.686000 16.528999 # 2 
1506 1 2 0.589700 27.321999 1.456000 16.074001 # 2 
1507 1 1 -1.179400 27.812000 9.820000 15.743000 # 1 
1508 1 2 0.589700 28.071001 9.292000 16.497000 # 2 
1509 1 2 0.589700 27.268000 9.235000 15.216000 # 2 
1510 1 1 -1.179400 27.812000 2.210000 20.347002 # 1 
1511 1 2 0.589700 28.577999 1.961000 20.864000 # 2 
1512 1 2 0.589700 27.293999 2.759000 20.934999 # 2 
1513 1 1 -1.179400 27.812000 9.820000 20.347002 # 1 
1514 1 2 0.589700 28.580000 10.142000 20.820000 # 2 
1515 1 2 0.589700 27.354000 10.613001 20.066002 # 2 
1516 1 1 -1.179400 32.395000 4.593000 12.030000 # 1 
1517 1 2 0.589700 32.889999 4.291000 12.792000 # 2 
1518 1 2 0.589700 31.605000 4.053000 12.028000 # 2 
1519 1 1 -1.179400 33.770000 0.000000 19.466999 # 1 
1520 1 2 0.589700 33.275002 0.762000 19.768999 # 2 
1521 1 2 0.589700 34.560001 -0.002000 20.007000 # 2 
1522 1 1 -1.179400 33.827000 3.713000 14.240000 # 1 
1523 1 2 0.589700 34.086002 4.467000 14.768000 # 2 
1524 1 2 0.589700 33.283001 3.186000 14.825000 # 2 
1525 1 1 -1.179400 33.827000 3.713000 21.849998 # 1 
1526 1 2 0.589700 33.336998 4.044000 22.604000 # 2 
1527 1 2 0.589700 34.094997 4.499000 21.373999 # 2 
1528 1 1 -1.179400 33.827000 8.317000 14.240000 # 1 
1529 1 2 0.589700 34.595001 8.790000 13.918000 # 2 
1530 1 2 0.589700 33.368999 8.036000 13.447000 # 2 
1531 1 1 -1.179400 33.827000 8.317000 21.849998 # 1 
1532 1 2 0.589700 34.593002 8.834000 22.099001 # 2 
1533 1 2 0.589700 33.307999 8.905000 21.301001 # 2 
1534 1 1 -1.179400 32.337997 2.210000 15.743000 # 1 
1535 1 2 0.589700 32.795998 1.417000 16.024000 # 2 
1536 1 2 0.589700 31.570000 1.888000 15.270000 # 2 
1537 1 1 -1.179400 32.337997 9.820000 15.743000 # 1 
1538 1 2 0.589700 31.572001 10.069000 15.226001 # 2 
1539 1 2 0.589700 32.857002 9.271000 15.155000 # 2 
1540 1 1 -1.179400 32.337997 2.210000 20.347002 # 1 
1541 1 2 0.589700 32.079002 2.738000 19.593000 # 2 
1542 1 2 0.589700 32.882000 2.795000 20.874001 # 2 
1543 1 1 -1.179400 32.337997 9.820000 20.347002 # 1 
1544 1 2 0.589700 32.827999 10.573999 20.016001 # 2 
1545 1 2 0.589700 32.070999 9.344000 19.561001 # 2 
1546 1 1 -1.179400 27.066000 6.015000 18.045000 # 1 
1547 1 2 0.589700 27.592001 6.814000 18.015999 # 2 
1548 1 2 0.589700 26.540001 6.044001 17.246000 # 2 
1549 1 1 -1.179400 33.084000 6.015000 18.045000 # 1 
1550 1 2 0.589700 33.610001 5.986000 18.844000 # 2 
1551 1 2 0.589700 32.557999 5.216000 18.073999 # 2 
1552 1 1 -1.179400 25.481998 6.015000 20.366001 # 1 
1553 1 2 0.589700 26.024000 6.010000 19.577000 # 2 
1554 1 2 0.589700 25.767000 5.245000 20.858000 # 2 
1555 1 1 -1.179400 34.667999 6.015000 20.366001 # 1 
1556 1 2 0.589700 34.407001 6.789000 20.865000 # 2 
1557 1 2 0.589700 35.625000 6.033000 20.376999 # 2 
1558 1 1 -1.179400 25.481998 6.015000 15.724000 # 1 
1559 1 2 0.589700 24.525002 5.997000 15.713000 # 2 
1560 1 2 0.589700 25.743000 5.241000 15.225000 # 2 
1561 1 1 -1.179400 34.667999 6.015000 15.724000 # 1 
1562 1 2 0.589700 34.125999 6.020000 16.513000 # 2 
1563 1 2 0.589700 34.382999 6.785000 15.232000 # 2 
1564 1 1 -1.179400 28.653000 3.695000 18.045000 # 1 
1565 1 2 0.589700 28.110001 4.483000 18.049999 # 2 
1566 1 2 0.589700 28.368000 3.203000 18.815001 # 2 
1567 1 1 -1.179400 31.497000 3.695000 18.045000 # 1 
1568 1 2 0.589700 30.539999 3.683000 18.027000 # 2 
1569 1 2 0.589700 31.758001 3.195000 17.271000 # 2 
1570 1 1 -1.179400 28.653000 8.335000 18.045000 # 1 
1571 1 2 0.589700 28.392000 8.835000 18.819000 # 2 
1572 1 2 0.589700 29.610001 8.347000 18.063000 # 2 
1573 1 1 -1.179400 31.497000 8.335000 18.045000 # 1 
1574 1 2 0.589700 32.040001 7.547000 18.040001 # 2 
1575 1 2 0.589700 31.782000 8.827000 17.275000 # 2 
1576 1 1 -1.179400 48.119999 0.000000 3.006000 # 1 
1577 1 2 0.589700 47.320999 0.029000 3.532000 # 2 
1578 1 2 0.589700 48.091003 0.799000 2.480000 # 2 
1579 1 1 -1.179400 48.119999 2.321000 1.422000 # 1 
1580 1 2 0.589700 47.334000 2.804000 1.678000 # 2 
1581 1 2 0.589700 48.105999 2.329000 0.465000 # 2 
1582 1 1 -1.179400 48.119999 2.321000 10.608000 # 1 
1583 1 2 0.589700 47.337997 2.800000 10.334999 # 2 
1584 1 2 0.589700 48.118000 1.531000 10.067999 # 2 
1585 1 1 -1.179400 36.090000 12.030000 9.024000 # 1 
1586 1 2 0.589700 36.118999 11.231001 9.550000 # 2 
1587 1 2 0.589700 36.889000 12.000999 8.498000 # 2 
1588 1 1 -1.179400 38.410000 12.030000 4.593000 # 1 
1589 1 2 0.589700 37.620003 12.032000 4.053000 # 2 
1590 1 2 0.589700 38.904999 11.268000 4.291000 # 2 
1591 1 1 -1.179400 45.799999 12.030000 4.593000 # 1 
1592 1 2 0.589700 45.300999 11.260000 4.321000 # 2 
1593 1 2 0.589700 45.781998 12.002000 5.549000 # 2 
1594 1 1 -1.179400 36.090000 12.030000 3.006000 # 1 
1595 1 2 0.589700 35.291000 12.059000 3.532000 # 2 
1596 1 2 0.589700 36.061001 12.829000 2.480000 # 2 
1597 1 1 -1.179400 36.090000 14.351000 1.422000 # 1 
1598 1 2 0.589700 35.304001 14.834000 1.678000 # 2 
1599 1 2 0.589700 36.076000 14.358999 0.465000 # 2 
1600 1 1 -1.179400 36.090000 14.351000 10.608000 # 1 
1601 1 2 0.589700 35.308002 14.830000 10.334999 # 2 
1602 1 2 0.589700 36.087997 13.561000 10.067999 # 2 
1603 1 1 -1.179400 36.090000 21.738998 1.422000 # 1 
1604 1 2 0.589700 36.872002 21.259998 1.695000 # 2 
1605 1 2 0.589700 36.091999 22.528999 1.962000 # 2 
1606 1 1 -1.179400 36.090000 21.738998 10.608000 # 1 
1607 1 2 0.589700 36.875999 21.256001 10.352000 # 2 
1608 1 2 0.589700 36.104000 21.730001 11.565000 # 2 
1609 1 1 -1.179400 42.104996 21.054001 0.000000 # 1 
1610 1 2 0.589700 42.133999 21.580000 0.799000 # 2 
1611 1 2 0.589700 42.903999 20.528000 0.029000 # 2 
1612 1 1 -1.179400 42.104996 13.452001 2.321000 # 1 
1613 1 2 0.589700 41.322998 13.725000 2.800000 # 2 
1614 1 2 0.589700 42.103001 13.992000 1.531000 # 2 
1615 1 1 -1.179400 42.104996 22.637999 2.321000 # 1 
1616 1 2 0.589700 41.319000 22.382000 2.804000 # 2 
1617 1 2 0.589700 42.090996 23.594999 2.329000 # 2 
1618 1 1 -1.179400 42.104996 13.452001 9.709000 # 1 
1619 1 2 0.589700 42.891003 13.708000 9.226000 # 2 
1620 1 2 0.589700 42.118996 12.495001 9.700000 # 2 
1621 1 1 -1.179400 42.104996 22.637999 9.709000 # 1 
1622 1 2 0.589700 42.107002 22.098000 10.499000 # 2 
1623 1 2 0.589700 42.887001 22.365000 9.230000 # 2 
1624 1 1 -1.179400 39.785000 16.622999 0.000000 # 1 
1625 1 2 0.589700 39.285999 16.351000 0.770000 # 2 
1626 1 2 0.589700 39.767002 17.579000 0.028000 # 2 
1627 1 1 -1.179400 38.410000 12.030000 7.437000 # 1 
1628 1 2 0.589700 38.909000 12.799999 7.709000 # 2 
1629 1 2 0.589700 38.427998 12.058001 6.481000 # 2 
1630 1 1 -1.179400 38.353001 15.743000 2.210000 # 1 
1631 1 2 0.589700 38.870998 15.155000 2.759000 # 2 
1632 1 2 0.589700 37.586998 15.226001 1.961000 # 2 
1633 1 1 -1.179400 38.353001 15.743000 9.820000 # 1 
1634 1 2 0.589700 38.811001 16.024000 10.613001 # 2 
1635 1 2 0.589700 37.584999 15.270000 10.142000 # 2 
1636 1 1 -1.179400 38.353001 20.347002 2.210000 # 1 
1637 1 2 0.589700 38.084999 19.561001 2.686000 # 2 
1638 1 2 0.589700 38.842999 20.016001 1.456000 # 2 
1639 1 1 -1.179400 38.353001 20.347002 9.820000 # 1 
1640 1 2 0.589700 38.896999 20.874001 9.235000 # 2 
1641 1 2 0.589700 38.094002 19.593000 9.292000 # 2 
1642 1 1 -1.179400 39.841999 14.240000 3.713000 # 1 
1643 1 2 0.589700 40.109001 14.716001 4.499000 # 2 
1644 1 2 0.589700 39.352001 13.486000 4.044000 # 2 
1645 1 1 -1.179400 39.841999 21.849998 3.713000 # 1 
1646 1 2 0.589700 40.100998 21.322001 4.467000 # 2 
1647 1 2 0.589700 39.298000 21.264999 3.186000 # 2 
1648 1 1 -1.179400 39.841999 14.240000 8.317000 # 1 
1649 1 2 0.589700 40.608002 13.990999 8.834000 # 2 
1650 1 2 0.589700 39.324001 14.789000 8.905000 # 2 
1651 1 1 -1.179400 39.841999 21.849998 8.317000 # 1 
1652 1 2 0.589700 40.610001 22.172001 8.790000 # 2 
1653 1 2 0.589700 39.383999 22.643002 8.036000 # 2 
1654 1 1 -1.179400 44.425003 16.622999 0.000000 # 1 
1655 1 2 0.589700 44.920002 16.320999 0.762000 # 2 
1656 1 2 0.589700 43.635002 16.083000 -0.002000 # 2 
1657 1 1 -1.179400 45.799999 12.030000 7.437000 # 1 
1658 1 2 0.589700 45.305000 12.792000 7.739000 # 2 
1659 1 2 0.589700 46.590000 12.028000 7.977000 # 2 
1660 1 1 -1.179400 45.857002 15.743000 2.210000 # 1 
1661 1 2 0.589700 46.115997 16.497000 2.738000 # 2 
1662 1 2 0.589700 45.313000 15.216000 2.795000 # 2 
1663 1 1 -1.179400 45.857002 15.743000 9.820000 # 1 
1664 1 2 0.589700 45.367004 16.074001 10.573999 # 2 
1665 1 2 0.589700 46.125000 16.528999 9.344000 # 2 
1666 1 1 -1.179400 45.857002 20.347002 2.210000 # 1 
1667 1 2 0.589700 46.625000 20.820000 1.888000 # 2 
1668 1 2 0.589700 45.398998 20.066002 1.417000 # 2 
1669 1 1 -1.179400 45.857002 20.347002 9.820000 # 1 
1670 1 2 0.589700 46.623001 20.864000 10.069000 # 2 
1671 1 2 0.589700 45.338001 20.934999 9.271000 # 2 
1672 1 1 -1.179400 44.368000 14.240000 3.713000 # 1 
1673 1 2 0.589700 44.826004 13.447000 3.994000 # 2 
1674 1 2 0.589700 43.600002 13.918000 3.240000 # 2 
1675 1 1 -1.179400 44.368000 21.849998 3.713000 # 1 
1676 1 2 0.589700 43.601997 22.099001 3.196000 # 2 
1677 1 2 0.589700 44.887001 21.301001 3.125000 # 2 
1678 1 1 -1.179400 44.368000 14.240000 8.317000 # 1 
1679 1 2 0.589700 44.109001 14.768000 7.563000 # 2 
1680 1 2 0.589700 44.911999 14.825000 8.844000 # 2 
1681 1 1 -1.179400 44.368000 21.849998 8.317000 # 1 
1682 1 2 0.589700 44.857998 22.604000 7.986000 # 2 
1683 1 2 0.589700 44.100998 21.373999 7.531000 # 2 
1684 1 1 -1.179400 39.096001 18.045000 6.015000 # 1 
1685 1 2 0.589700 39.621998 18.844000 5.986000 # 2 
1686 1 2 0.589700 38.570000 18.073999 5.216000 # 2 
1687 1 1 -1.179400 45.114002 18.045000 6.015000 # 1 
1688 1 2 0.589700 45.639999 18.015999 6.814000 # 2 
1689 1 2 0.589700 44.587997 17.246000 6.044001 # 2 
1690 1 1 -1.179400 37.512001 18.045000 8.336000 # 1 
1691 1 2 0.589700 38.054001 18.040001 7.547000 # 2 
1692 1 2 0.589700 37.797001 17.275000 8.828000 # 2 
1693 1 1 -1.179400 46.697998 18.045000 8.336000 # 1 
1694 1 2 0.589700 46.437000 18.819000 8.835000 # 2 
1695 1 2 0.589700 47.654999 18.063000 8.347000 # 2 
1696 1 1 -1.179400 37.512001 18.045000 3.694000 # 1 
1697 1 2 0.589700 36.555000 18.027000 3.683000 # 2 
1698 1 2 0.589700 37.772999 17.271000 3.195000 # 2 
1699 1 1 -1.179400 46.697998 18.045000 3.694000 # 1 
1700 1 2 0.589700 46.156002 18.049999 4.483000 # 2 
1701 1 2 0.589700 46.413002 18.815001 3.202000 # 2 
1702 1 1 -1.179400 40.682999 15.725000 6.015000 # 1 
1703 1 2 0.589700 40.139999 16.513000 6.020000 # 2 
1704 1 2 0.589700 40.398003 15.233001 6.785000 # 2 
1705 1 1 -1.179400 43.526997 15.725000 6.015000 # 1 
1706 1 2 0.589700 42.570000 15.713000 5.997000 # 2 
1707 1 2 0.589700 43.787998 15.225000 5.241000 # 2 
1708 1 1 -1.179400 40.682999 20.365000 6.015000 # 1 
1709 1 2 0.589700 40.422001 20.865000 6.789000 # 2 
1710 1 2 0.589700 41.639999 20.376999 6.033000 # 2 
1711 1 1 -1.179400 43.526997 20.365000 6.015000 # 1 
1712 1 2 0.589700 44.070000 19.577000 6.010000 # 2 
1713 1 2 0.589700 43.811996 20.857000 5.245000 # 2 
1714 1 1 -1.179400 42.104996 3.006000 12.030000 # 1 
1715 1 2 0.589700 42.076000 2.480000 11.231001 # 2 
1716 1 2 0.589700 41.306000 3.532000 12.000999 # 2 
1717 1 1 -1.179400 39.785000 7.437000 12.030000 # 1 
1718 1 2 0.589700 40.574997 7.977000 12.032000 # 2 
1719 1 2 0.589700 39.290001 7.739000 11.268000 # 2 
1720 1 1 -1.179400 44.425003 7.437000 12.030000 # 1 
1721 1 2 0.589700 44.924004 7.709000 11.260000 # 2 
1722 1 2 0.589700 44.443001 6.481000 12.002000 # 2 
1723 1 1 -1.179400 36.090000 0.000000 15.036000 # 1 
1724 1 2 0.589700 35.291000 0.029000 15.562000 # 2 
1725 1 2 0.589700 36.061001 0.799000 14.510000 # 2 
1726 1 1 -1.179400 36.090000 2.321000 13.452001 # 1 
1727 1 2 0.589700 35.304001 2.804000 13.708000 # 2 
1728 1 2 0.589700 36.076000 2.329000 12.495001 # 2 
1729 1 1 -1.179400 36.090000 2.321000 22.637999 # 1 
1730 1 2 0.589700 35.308002 2.800000 22.365000 # 2 
1731 1 2 0.589700 36.087997 1.531000 22.098000 # 2 
1732 1 1 -1.179400 36.090000 9.709000 13.452001 # 1 
1733 1 2 0.589700 36.872002 9.230000 13.725000 # 2 
1734 1 2 0.589700 36.091999 10.499000 13.992000 # 2 
1735 1 1 -1.179400 36.090000 9.709000 22.637999 # 1 
1736 1 2 0.589700 36.875999 9.226000 22.382000 # 2 
1737 1 2 0.589700 36.104000 9.700000 23.594999 # 2 
1738 1 1 -1.179400 42.104996 9.024000 12.030000 # 1 
1739 1 2 0.589700 42.133999 9.550000 12.829000 # 2 
1740 1 2 0.589700 42.903999 8.498000 12.059000 # 2 
1741 1 1 -1.179400 42.104996 1.422000 14.351000 # 1 
1742 1 2 0.589700 41.322998 1.695000 14.830000 # 2 
1743 1 2 0.589700 42.103001 1.962000 13.561000 # 2 
1744 1 1 -1.179400 42.104996 10.608000 14.351000 # 1 
1745 1 2 0.589700 41.319000 10.352000 14.834000 # 2 
1746 1 2 0.589700 42.090996 11.565000 14.358999 # 2 
1747 1 1 -1.179400 42.104996 1.422000 21.738998 # 1 
1748 1 2 0.589700 42.891003 1.678000 21.256001 # 2 
1749 1 2 0.589700 42.118996 0.465000 21.730001 # 2 
1750 1 1 -1.179400 42.104996 10.608000 21.738998 # 1 
1751 1 2 0.589700 42.107002 10.067999 22.528999 # 2 
1752 1 2 0.589700 42.887001 10.334999 21.259998 # 2 
1753 1 1 -1.179400 39.785000 4.593000 12.030000 # 1 
1754 1 2 0.589700 39.285999 4.321000 12.799999 # 2 
1755 1 2 0.589700 39.767002 5.549000 12.058001 # 2 
1756 1 1 -1.179400 38.410000 0.000000 19.466999 # 1 
1757 1 2 0.589700 38.909000 0.770000 19.739000 # 2 
1758 1 2 0.589700 38.427998 0.028000 18.511000 # 2 
1759 1 1 -1.179400 38.353001 3.713000 14.240000 # 1 
1760 1 2 0.589700 38.870998 3.125000 14.789000 # 2 
1761 1 2 0.589700 37.586998 3.196000 13.990999 # 2 
1762 1 1 -1.179400 38.353001 3.713000 21.849998 # 1 
1763 1 2 0.589700 38.811001 3.994000 22.643002 # 2 
1764 1 2 0.589700 37.584999 3.240000 22.172001 # 2 
1765 1 1 -1.179400 38.353001 8.317000 14.240000 # 1 
1766 1 2 0.589700 38.084999 7.531000 14.716001 # 2 
1767 1 2 0.589700 38.842999 7.986000 13.486000 # 2 
1768 1 1 -1.179400 38.353001 8.317000 21.849998 # 1 
1769 1 2 0.589700 38.896999 8.844000 21.264999 # 2 
1770 1 2 0.589700 38.094002 7.563000 21.322001 # 2 
1771 1 1 -1.179400 39.841999 2.210000 15.743000 # 1 
1772 1 2 0.589700 40.109001 2.686000 16.528999 # 2 
1773 1 2 0.589700 39.352001 1.456000 16.074001 # 2 
1774 1 1 -1.179400 39.841999 9.820000 15.743000 # 1 
1775 1 2 0.589700 40.100998 9.292000 16.497000 # 2 
1776 1 2 0.589700 39.298000 9.235000 15.216000 # 2 
1777 1 1 -1.179400 39.841999 2.210000 20.347002 # 1 
1778 1 2 0.589700 40.608002 1.961000 20.864000 # 2 
1779 1 2 0.589700 39.324001 2.759000 20.934999 # 2 
1780 1 1 -1.179400 39.841999 9.820000 20.347002 # 1 
1781 1 2 0.589700 40.610001 10.142000 20.820000 # 2 
1782 1 2 0.589700 39.383999 10.613001 20.066002 # 2 
1783 1 1 -1.179400 44.425003 4.593000 12.030000 # 1 
1784 1 2 0.589700 44.920002 4.291000 12.792000 # 2 
1785 1 2 0.589700 43.635002 4.053000 12.028000 # 2 
1786 1 1 -1.179400 45.799999 0.000000 19.466999 # 1 
1787 1 2 0.589700 45.305000 0.762000 19.768999 # 2 
1788 1 2 0.589700 46.590000 -0.002000 20.007000 # 2 
1789 1 1 -1.179400 45.857002 3.713000 14.240000 # 1 
1790 1 2 0.589700 46.115997 4.467000 14.768000 # 2 
1791 1 2 0.589700 45.313000 3.186000 14.825000 # 2 
1792 1 1 -1.179400 45.857002 3.713000 21.849998 # 1 
1793 1 2 0.589700 45.367004 4.044000 22.604000 # 2 
1794 1 2 0.589700 46.125000 4.499000 21.373999 # 2 
1795 1 1 -1.179400 45.857002 8.317000 14.240000 # 1 
1796 1 2 0.589700 46.625000 8.790000 13.918000 # 2 
1797 1 2 0.589700 45.398998 8.036000 13.447000 # 2 
1798 1 1 -1.179400 45.857002 8.317000 21.849998 # 1 
1799 1 2 0.589700 46.623001 8.834000 22.099001 # 2 
1800 1 2 0.589700 45.338001 8.905000 21.301001 # 2 
1801 1 1 -1.179400 44.368000 2.210000 15.743000 # 1 
1802 1 2 0.589700 44.826004 1.417000 16.024000 # 2 
1803 1 2 0.589700 43.600002 1.888000 15.270000 # 2 
1804 1 1 -1.179400 44.368000 9.820000 15.743000 # 1 
1805 1 2 0.589700 43.601997 10.069000 15.226001 # 2 
1806 1 2 0.589700 44.887001 9.271000 15.155000 # 2 
1807 1 1 -1.179400 44.368000 2.210000 20.347002 # 1 
1808 1 2 0.589700 44.109001 2.738000 19.593000 # 2 
1809 1 2 0.589700 44.911999 2.795000 20.874001 # 2 
1810 1 1 -1.179400 44.368000 9.820000 20.347002 # 1 
1811 1 2 0.589700 44.857998 10.573999 20.016001 # 2 
1812 1 2 0.589700 44.100998 9.344000 19.561001 # 2 
1813 1 1 -1.179400 39.096001 6.015000 18.045000 # 1 
1814 1 2 0.589700 39.621998 6.814000 18.015999 # 2 
1815 1 2 0.589700 38.570000 6.044001 17.246000 # 2 
1816 1 1 -1.179400 45.114002 6.015000 18.045000 # 1 
1817 1 2 0.589700 45.639999 5.986000 18.844000 # 2 
1818 1 2 0.589700 44.587997 5.216000 18.073999 # 2 
1819 1 1 -1.179400 37.512001 6.015000 20.366001 # 1 
1820 1 2 0.589700 38.054001 6.010000 19.577000 # 2 
1821 1 2 0.589700 37.797001 5.245000 20.858000 # 2 
1822 1 1 -1.179400 46.697998 6.015000 20.366001 # 1 
1823 1 2 0.589700 46.437000 6.789000 20.865000 # 2 
1824 1 2 0.589700 47.654999 6.033000 20.376999 # 2 
1825 1 1 -1.179400 37.512001 6.015000 15.724000 # 1 
1826 1 2 0.589700 36.555000 5.997000 15.713000 # 2 
1827 1 2 0.589700 37.772999 5.241000 15.225000 # 2 
1828 1 1 -1.179400 46.697998 6.015000 15.724000 # 1 
1829 1 2 0.589700 46.156002 6.020000 16.513000 # 2 
1830 1 2 0.589700 46.413002 6.785000 15.232000 # 2 
1831 1 1 -1.179400 40.682999 3.695000 18.045000 # 1 
1832 1 2 0.589700 40.139999 4.483000 18.049999 # 2 
1833 1 2 0.589700 40.398003 3.203000 18.815001 # 2 
1834 1 1 -1.179400 43.526997 3.695000 18.045000 # 1 
1835 1 2 0.589700 42.570000 3.683000 18.027000 # 2 
1836 1 2 0.589700 43.787998 3.195000 17.271000 # 2 
1837 1 1 -1.179400 40.682999 8.335000 18.045000 # 1 
1838 1 2 0.589700 40.422001 8.835000 18.819000 # 2 
1839 1 2 0.589700 41.639999 8.347000 18.063000 # 2 
1840 1 1 -1.179400 43.526997 8.335000 18.045000 # 1 
1841 1 2 0.589700 44.070000 7.547000 18.040001 # 2 
1842 1 2 0.589700 43.811996 8.827000 17.275000 # 2 
1843 1 1 -1.179400 24.059999 24.059999 9.024000 # 1 
1844 1 2 0.589700 24.089001 23.261002 9.550000 # 2 
1845 1 2 0.589700 24.858999 24.031000 8.498000 # 2 
1846 1 1 -1.179400 26.380001 24.059999 4.593000 # 1 
1847 1 2 0.589700 25.590000 24.062000 4.053000 # 2 
1848 1 2 0.589700 26.875000 23.297998 4.291000 # 2 
1849 1 1 -1.179400 33.770000 24.059999 4.593000 # 1 
1850 1 2 0.589700 33.271000 23.290001 4.321000 # 2 
1851 1 2 0.589700 33.751999 24.032000 5.549000 # 2 
1852 1 1 -1.179400 30.074999 15.036000 12.030000 # 1 
1853 1 2 0.589700 30.046001 14.510000 11.231001 # 2 
1854 1 2 0.589700 29.275999 15.562000 12.000999 # 2 
1855 1 1 -1.179400 27.755001 19.466999 12.030000 # 1 
1856 1 2 0.589700 28.545000 20.007000 12.032000 # 2 
1857 1 2 0.589700 27.260000 19.768999 11.268000 # 2 
1858 1 1 -1.179400 32.395000 19.466999 12.030000 # 1 
1859 1 2 0.589700 32.893997 19.739000 11.260000 # 2 
1860 1 2 0.589700 32.412998 18.511000 12.002000 # 2 
1861 1 1 -1.179400 24.059999 12.030000 21.054001 # 1 
1862 1 2 0.589700 24.089001 11.231001 21.580000 # 2 
1863 1 2 0.589700 24.858999 12.000999 20.528000 # 2 
1864 1 1 -1.179400 26.380001 12.030000 16.622999 # 1 
1865 1 2 0.589700 25.590000 12.032000 16.083000 # 2 
1866 1 2 0.589700 26.875000 11.268000 16.320999 # 2 
1867 1 1 -1.179400 33.770000 12.030000 16.622999 # 1 
1868 1 2 0.589700 33.271000 11.260000 16.351000 # 2 
1869 1 2 0.589700 33.751999 12.002000 17.579000 # 2 
1870 1 1 -1.179400 24.059999 21.738998 13.452001 # 1 
1871 1 2 0.589700 24.841999 21.259998 13.725000 # 2 
1872 1 2 0.589700 24.062000 22.528999 13.992000 # 2 
1873 1 1 -1.179400 24.059999 21.738998 22.637999 # 1 
1874 1 2 0.589700 24.846001 21.256001 22.382000 # 2 
1875 1 2 0.589700 24.073999 21.730001 23.594999 # 2 
1876 1 1 -1.179400 30.074999 21.054001 12.030000 # 1 
1877 1 2 0.589700 30.104000 21.580000 12.829000 # 2 
1878 1 2 0.589700 30.874001 20.528000 12.059000 # 2 
1879 1 1 -1.179400 30.074999 13.452001 14.351000 # 1 
1880 1 2 0.589700 29.293001 13.725000 14.830000 # 2 
1881 1 2 0.589700 30.072998 13.992000 13.561000 # 2 
1882 1 1 -1.179400 30.074999 22.637999 14.351000 # 1 
1883 1 2 0.589700 29.289000 22.382000 14.834000 # 2 
1884 1 2 0.589700 30.060999 23.594999 14.358999 # 2 
1885 1 1 -1.179400 30.074999 13.452001 21.738998 # 1 
1886 1 2 0.589700 30.861000 13.708000 21.256001 # 2 
1887 1 2 0.589700 30.088999 12.495001 21.730001 # 2 
1888 1 1 -1.179400 30.074999 22.637999 21.738998 # 1 
1889 1 2 0.589700 30.077000 22.098000 22.528999 # 2 
1890 1 2 0.589700 30.857000 22.365000 21.259998 # 2 
1891 1 1 -1.179400 27.755001 16.622999 12.030000 # 1 
1892 1 2 0.589700 27.256001 16.351000 12.799999 # 2 
1893 1 2 0.589700 27.737000 17.579000 12.058001 # 2 
1894 1 1 -1.179400 26.380001 12.030000 19.466999 # 1 
1895 1 2 0.589700 26.879002 12.799999 19.739000 # 2 
1896 1 2 0.589700 26.398001 12.058001 18.511000 # 2 
1897 1 1 -1.179400 26.322998 15.743000 14.240000 # 1 
1898 1 2 0.589700 26.841000 15.155000 14.789000 # 2 
1899 1 2 0.589700 25.557001 15.226001 13.990999 # 2 
1900 1 1 -1.179400 26.322998 15.743000 21.849998 # 1 
1901 1 2 0.589700 26.781002 16.024000 22.643002 # 2 
1902 1 2 0.589700 25.555000 15.270000 22.172001 # 2 
1903 1 1 -1.179400 26.322998 20.347002 14.240000 # 1 
1904 1 2 0.589700 26.055000 19.561001 14.716001 # 2 
1905 1 2 0.589700 26.813000 20.016001 13.486000 # 2 
1906 1 1 -1.179400 26.322998 20.347002 21.849998 # 1 
1907 1 2 0.589700 26.867001 20.874001 21.264999 # 2 
1908 1 2 0.589700 26.063999 19.593000 21.322001 # 2 
1909 1 1 -1.179400 27.812000 14.240000 15.743000 # 1 
1910 1 2 0.589700 28.078999 14.716001 16.528999 # 2 
1911 1 2 0.589700 27.321999 13.486000 16.074001 # 2 
1912 1 1 -1.179400 27.812000 21.849998 15.743000 # 1 
1913 1 2 0.589700 28.071001 21.322001 16.497000 # 2 
1914 1 2 0.589700 27.268000 21.264999 15.216000 # 2 
1915 1 1 -1.179400 27.812000 14.240000 20.347002 # 1 
1916 1 2 0.589700 28.577999 13.990999 20.864000 # 2 
1917 1 2 0.589700 27.293999 14.789000 20.934999 # 2 
1918 1 1 -1.179400 27.812000 21.849998 20.347002 # 1 
1919 1 2 0.589700 28.580000 22.172001 20.820000 # 2 
1920 1 2 0.589700 27.354000 22.643002 20.066002 # 2 
1921 1 1 -1.179400 32.395000 16.622999 12.030000 # 1 
1922 1 2 0.589700 32.889999 16.320999 12.792000 # 2 
1923 1 2 0.589700 31.605000 16.083000 12.028000 # 2 
1924 1 1 -1.179400 33.770000 12.030000 19.466999 # 1 
1925 1 2 0.589700 33.275002 12.792000 19.768999 # 2 
1926 1 2 0.589700 34.560001 12.028000 20.007000 # 2 
1927 1 1 -1.179400 33.827000 15.743000 14.240000 # 1 
1928 1 2 0.589700 34.086002 16.497000 14.768000 # 2 
1929 1 2 0.589700 33.283001 15.216000 14.825000 # 2 
1930 1 1 -1.179400 33.827000 15.743000 21.849998 # 1 
1931 1 2 0.589700 33.336998 16.074001 22.604000 # 2 
1932 1 2 0.589700 34.094997 16.528999 21.373999 # 2 
1933 1 1 -1.179400 33.827000 20.347002 14.240000 # 1 
1934 1 2 0.589700 34.595001 20.820000 13.918000 # 2 
1935 1 2 0.589700 33.368999 20.066002 13.447000 # 2 
1936 1 1 -1.179400 33.827000 20.347002 21.849998 # 1 
1937 1 2 0.589700 34.593002 20.864000 22.099001 # 2 
1938 1 2 0.589700 33.307999 20.934999 21.301001 # 2 
1939 1 1 -1.179400 32.337997 14.240000 15.743000 # 1 
1940 1 2 0.589700 32.795998 13.447000 16.024000 # 2 
1941 1 2 0.589700 31.570000 13.918000 15.270000 # 2 
1942 1 1 -1.179400 32.337997 21.849998 15.743000 # 1 
1943 1 2 0.589700 31.572001 22.099001 15.226001 # 2 
1944 1 2 0.589700 32.857002 21.301001 15.155000 # 2 
1945 1 1 -1.179400 32.337997 14.240000 20.347002 # 1 
1946 1 2 0.589700 32.079002 14.768000 19.593000 # 2 
1947 1 2 0.589700 32.882000 14.825000 20.874001 # 2 
1948 1 1 -1.179400 32.337997 21.849998 20.347002 # 1 
1949 1 2 0.589700 32.827999 22.604000 20.016001 # 2 
1950 1 2 0.589700 32.070999 21.373999 19.561001 # 2 
1951 1 1 -1.179400 27.066000 18.045000 18.045000 # 1 
1952 1 2 0.589700 27.592001 18.844000 18.015999 # 2 
1953 1 2 0.589700 26.540001 18.073999 17.246000 # 2 
1954 1 1 -1.179400 33.084000 18.045000 18.045000 # 1 
1955 1 2 0.589700 33.610001 18.015999 18.844000 # 2 
1956 1 2 0.589700 32.557999 17.246000 18.073999 # 2 
1957 1 1 -1.179400 25.481998 18.045000 20.366001 # 1 
1958 1 2 0.589700 26.024000 18.040001 19.577000 # 2 
1959 1 2 0.589700 25.767000 17.275000 20.858000 # 2 
1960 1 1 -1.179400 34.667999 18.045000 20.366001 # 1 
1961 1 2 0.589700 34.407001 18.819000 20.865000 # 2 
1962 1 2 0.589700 35.625000 18.063000 20.376999 # 2 
1963 1 1 -1.179400 25.481998 18.045000 15.724000 # 1 
1964 1 2 0.589700 24.525002 18.027000 15.713000 # 2 
1965 1 2 0.589700 25.743000 17.271000 15.225000 # 2 
1966 1 1 -1.179400 34.667999 18.045000 15.724000 # 1 
1967 1 2 0.589700 34.125999 18.049999 16.513000 # 2 
1968 1 2 0.589700 34.382999 18.815001 15.232000 # 2 
1969 1 1 -1.179400 28.653000 15.725000 18.045000 # 1 
1970 1 2 0.589700 28.110001 16.513000 18.049999 # 2 
1971 1 2 0.589700 28.368000 15.233001 18.815001 # 2 
1972 1 1 -1.179400 31.497000 15.725000 18.045000 # 1 
1973 1 2 0.589700 30.539999 15.713000 18.027000 # 2 
1974 1 2 0.589700 31.758001 15.225000 17.271000 # 2 
1975 1 1 -1.179400 28.653000 20.365000 18.045000 # 1 
1976 1 2 0.589700 28.392000 20.865000 18.819000 # 2 
1977 1 2 0.589700 29.610001 20.376999 18.063000 # 2 
1978 1 1 -1.179400 31.497000 20.365000 18.045000 # 1 
1979 1 2 0.589700 32.040001 19.577000 18.040001 # 2 
1980 1 2 0.589700 31.782000 20.857000 17.275000 # 2 
1981 1 1 -1.179400 48.119999 12.030000 3.006000 # 1 
1982 1 2 0.589700 47.320999 12.059000 3.532000 # 2 
1983 1 2 0.589700 48.091003 12.829000 2.480000 # 2 
1984 1 1 -1.179400 48.119999 14.351000 1.422000 # 1 
1985 1 2 0.589700 47.334000 14.834000 1.678000 # 2 
1986 1 2 0.589700 48.105999 14.358999 0.465000 # 2 
1987 1 1 -1.179400 48.119999 14.351000 10.608000 # 1 
1988 1 2 0.589700 47.337997 14.830000 10.334999 # 2 
1989 1 2 0.589700 48.118000 13.561000 10.067999 # 2 
1990 1 1 -1.179400 36.090000 24.059999 9.024000 # 1 
1991 1 2 0.589700 36.118999 23.261002 9.550000 # 2 
1992 1 2 0.589700 36.889000 24.031000 8.498000 # 2 
1993 1 1 -1.179400 38.410000 24.059999 4.593000 # 1 
1994 1 2 0.589700 37.620003 24.062000 4.053000 # 2 
1995 1 2 0.589700 38.904999 23.297998 4.291000 # 2 
1996 1 1 -1.179400 45.799999 24.059999 4.593000 # 1 
1997 1 2 0.589700 45.300999 23.290001 4.321000 # 2 
1998 1 2 0.589700 45.781998 24.032000 5.549000 # 2 
1999 1 1 -1.179400 42.104996 15.036000 12.030000 # 1 
2000 1 2 0.589700 42.076000 14.510000 11.231001 # 2 
2001 1 2 0.589700 41.306000 15.562000 12.000999 # 2 
2002 1 1 -1.179400 39.785000 19.466999 12.030000 # 1 
2003 1 2 0.589700 40.574997 20.007000 12.032000 # 2 
2004 1 2 0.589700 39.290001 19.768999 11.268000 # 2 
2005 1 1 -1.179400 44.425003 19.466999 12.030000 # 1 
2006 1 2 0.589700 44.924004 19.739000 11.260000 # 2 
2007 1 2 0.589700 44.443001 18.511000 12.002000 # 2 
2008 1 1 -1.179400 36.090000 12.030000 21.054001 # 1 
2009 1 2 0.589700 36.118999 11.231001 21.580000 # 2 
2010 1 2 0.589700 36.889000 12.000999 20.528000 # 2 
2011 1 1 -1.179400 38.410000 12.030000 16.622999 # 1 
2012 1 2 0.589700 37.620003 12.032000 16.083000 # 2 
2013 1 2 0.589700 38.904999 11.268000 16.320999 # 2 
2014 1 1 -1.179400 45.799999 12.030000 16.622999 # 1 
2015 1 2 0.589700 45.300999 11.260000 16.351000 # 2 
2016 1 2 0.589700 45.781998 12.002000 17.579000 # 2 
2017 1 1 -1.179400 36.090000 12.030000 15.036000 # 1 
2018 1 2 0.589700 35.291000 12.059000 15.562000 # 2 
2019 1 2 0.589700 36.061001 12.829000 14.510000 # 2 
2020 1 1 -1.179400 36.090000 14.351000 13.452001 # 1 
2021 1 2 0.589700 35.304001 14.834000 13.708000 # 2 
2022 1 2 0.589700 36.076000 14.358999 12.495001 # 2 
2023 1 1 -1.179400 36.090000 14.351000 22.637999 # 1 
2024 1 2 0.589700 35.308002 14.830000 22.365000 # 2 
2025 1 2 0.589700 36.087997 13.561000 22.098000 # 2 
2026 1 1 -1.179400 36.090000 21.738998 13.452001 # 1 
2027 1 2 0.589700 36.872002 21.259998 13.725000 # 2 
2028 1 2 0.589700 36.091999 22.528999 13.992000 # 2 
2029 1 1 -1.179400 36.090000 21.738998 22.637999 # 1 
2030 1 2 0.589700 36.875999 21.256001 22.382000 # 2 
2031 1 2 0.589700 36.104000 21.730001 23.594999 # 2 
2032 1 1 -1.179400 42.104996 21.054001 12.030000 # 1 
2033 1 2 0.589700 42.133999 21.580000 12.829000 # 2 
2034 1 2 0.589700 42.903999 20.528000 12.059000 # 2 
2035 1 1 -1.179400 42.104996 13.452001 14.351000 # 1 
2036 1 2 0.589700 41.322998 13.725000 14.830000 # 2 
2037 1 2 0.589700 42.103001 13.992000 13.561000 # 2 
2038 1 1 -1.179400 42.104996 22.637999 14.351000 # 1 
2039 1 2 0.589700 41.319000 22.382000 14.834000 # 2 
2040 1 2 0.589700 42.090996 23.594999 14.358999 # 2 
2041 1 1 -1.179400 42.104996 13.452001 21.738998 # 1 
2042 1 2 0.589700 42.891003 13.708000 21.256001 # 2 
2043 1 2 0.589700 42.118996 12.495001 21.730001 # 2 
2044 1 1 -1.179400 42.104996 22.637999 21.738998 # 1 
2045 1 2 0.589700 42.107002 22.098000 22.528999 # 2 
2046 1 2 0.589700 42.887001 22.365000 21.259998 # 2 
2047 1 1 -1.179400 39.785000 16.622999 12.030000 # 1 
2048 1 2 0.589700 39.285999 16.351000 12.799999 # 2 
2049 1 2 0.589700 39.767002 17.579000 12.058001 # 2 
2050 1 1 -1.179400 38.410000 12.030000 19.466999 # 1 
2051 1 2 0.589700 38.909000 12.799999 19.739000 # 2 
2052 1 2 0.589700 38.427998 12.058001 18.511000 # 2 
2053 1 1 -1.179400 38.353001 15.743000 14.240000 # 1 
2054 1 2 0.589700 38.870998 15.155000 14.789000 # 2 
2055 1 2 0.589700 37.586998 15.226001 13.990999 # 2 
2056 1 1 -1.179400 38.353001 15.743000 21.849998 # 1 
2057 1 2 0.589700 38.811001 16.024000 22.643002 # 2 
2058 1 2 0.589700 37.584999 15.270000 22.172001 # 2 
2059 1 1 -1.179400 38.353001 20.347002 14.240000 # 1 
2060 1 2 0.589700 38.084999 19.561001 14.716001 # 2 
2061 1 2 0.589700 38.842999 20.016001 13.486000 # 2 
2062 1 1 -1.179400 38.353001 20.347002 21.849998 # 1 
2063 1 2 0.589700 38.896999 20.874001 21.264999 # 2 
2064 1 2 0.589700 38.094002 19.593000 21.322001 # 2 
2065 1 1 -1.179400 39.841999 14.240000 15.743000 # 1 
2066 1 2 0.589700 40.109001 14.716001 16.528999 # 2 
2067 1 2 0.589700 39.352001 13.486000 16.074001 # 2 
2068 1 1 -1.179400 39.841999 21.849998 15.743000 # 1 
2069 1 2 0.589700 40.100998 21.322001 16.497000 # 2 
2070 1 2 0.589700 39.298000 21.264999 15.216000 # 2 
2071 1 1 -1.179400 39.841999 14.240000 20.347002 # 1 
2072 1 2 0.589700 40.608002 13.990999 20.864000 # 2 
2073 1 2 0.589700 39.324001 14.789000 20.934999 # 2 
2074 1 1 -1.179400 39.841999 21.849998 20.347002 # 1 
2075 1 2 0.589700 40.610001 22.172001 20.820000 # 2 
2076 1 2 0.589700 39.383999 22.643002 20.066002 # 2 
2077 1 1 -1.179400 44.425003 16.622999 12.030000 # 1 
2078 1 2 0.589700 44.920002 16.320999 12.792000 # 2 
2079 1 2 0.589700 43.635002 16.083000 12.028000 # 2 
2080 1 1 -1.179400 45.799999 12.030000 19.466999 # 1 
2081 1 2 0.589700 45.305000 12.792000 19.768999 # 2 
2082 1 2 0.589700 46.590000 12.028000 20.007000 # 2 
2083 1 1 -1.179400 45.857002 15.743000 14.240000 # 1 
2084 1 2 0.589700 46.115997 16.497000 14.768000 # 2 
2085 1 2 0.589700 45.313000 15.216000 14.825000 # 2 
2086 1 1 -1.179400 45.857002 15.743000 21.849998 # 1 
2087 1 2 0.589700 45.367004 16.074001 22.604000 # 2 
2088 1 2 0.589700 46.125000 16.528999 21.373999 # 2 
2089 1 1 -1.179400 45.857002 20.347002 14.240000 # 1 
2090 1 2 0.589700 46.625000 20.820000 13.918000 # 2 
2091 1 2 0.589700 45.398998 20.066002 13.447000 # 2 
2092 1 1 -1.179400 45.857002 20.347002 21.849998 # 1 
2093 1 2 0.589700 46.623001 20.864000 22.099001 # 2 
2094 1 2 0.589700 45.338001 20.934999 21.301001 # 2 
2095 1 1 -1.179400 44.368000 14.240000 15.743000 # 1 
2096 1 2 0.589700 44.826004 13.447000 16.024000 # 2 
2097 1 2 0.589700 43.600002 13.918000 15.270000 # 2 
2098 1 1 -1.179400 44.368000 21.849998 15.743000 # 1 
2099 1 2 0.589700 43.601997 22.099001 15.226001 # 2 
2100 1 2 0.589700 44.887001 21.301001 15.155000 # 2 
2101 1 1 -1.179400 44.368000 14.240000 20.347002 # 1 
2102 1 2 0.589700 44.109001 14.768000 19.593000 # 2 
2103 1 2 0.589700 44.911999 14.825000 20.874001 # 2 
2104 1 1 -1.179400 44.368000 21.849998 20.347002 # 1 
2105 1 2 0.589700 44.857998 22.604000 20.016001 # 2 
2106 1 2 0.589700 44.100998 21.373999 19.561001 # 2 
2107 1 1 -1.179400 39.096001 18.045000 18.045000 # 1 
2108 1 2 0.589700 39.621998 18.844000 18.015999 # 2 
2109 1 2 0.589700 38.570000 18.073999 17.246000 # 2 
2110 1 1 -1.179400 45.114002 18.045000 18.045000 # 1 
2111 1 2 0.589700 45.639999 18.015999 18.844000 # 2 
2112 1 2 0.589700 44.587997 17.246000 18.073999 # 2 
2113 1 1 -1.179400 37.512001 18.045000 20.366001 # 1 
2114 1 2 0.589700 38.054001 18.040001 19.577000 # 2 
2115 1 2 0.589700 37.797001 17.275000 20.858000 # 2 
2116 1 1 -1.179400 46.697998 18.045000 20.366001 # 1 
2117 1 2 0.589700 46.437000 18.819000 20.865000 # 2 
2118 1 2 0.589700 47.654999 18.063000 20.376999 # 2 
2119 1 1 -1.179400 37.512001 18.045000 15.724000 # 1 
2120 1 2 0.589700 36.555000 18.027000 15.713000 # 2 
2121 1 2 0.589700 37.772999 17.271000 15.225000 # 2 
2122 1 1 -1.179400 46.697998 18.045000 15.724000 # 1 
2123 1 2 0.589700 46.156002 18.049999 16.513000 # 2 
2124 1 2 0.589700 46.413002 18.815001 15.232000 # 2 
2125 1 1 -1.179400 40.682999 15.725000 18.045000 # 1 
2126 1 2 0.589700 40.139999 16.513000 18.049999 # 2 
2127 1 2 0.589700 40.398003 15.233001 18.815001 # 2 
2128 1 1 -1.179400 43.526997 15.725000 18.045000 # 1 
2129 1 2 0.589700 42.570000 15.713000 18.027000 # 2 
2130 1 2 0.589700 43.787998 15.225000 17.271000 # 2 
2131 1 1 -1.179400 40.682999 20.365000 18.045000 # 1 
2132 1 2 0.589700 40.422001 20.865000 18.819000 # 2 
2133 1 2 0.589700 41.639999 20.376999 18.063000 # 2 
2134 1 1 -1.179400 43.526997 20.365000 18.045000 # 1 
2135 1 2 0.589700 44.070000 19.577000 18.040001 # 2 
2136 1 2 0.589700 43.811996 20.857000 17.275000 # 2 
2137 1 1 -1.179400 30.074999 3.006000 24.059999 # 1 
2138 1 2 0.589700 30.046001 2.480000 23.261002 # 2 
2139 1 2 0.589700 29.275999 3.532000 24.031000 # 2 
2140 1 1 -1.179400 27.755001 7.437000 24.059999 # 1 
2141 1 2 0.589700 28.545000 7.977000 24.062000 # 2 
2142 1 2 0.589700 27.260000 7.739000 23.297998 # 2 
2143 1 1 -1.179400 32.395000 7.437000 24.059999 # 1 
2144 1 2 0.589700 32.893997 7.709000 23.290001 # 2 
2145 1 2 0.589700 32.412998 6.481000 24.032000 # 2 
2146 1 1 -1.179400 48.119999 0.000000 15.036000 # 1 
2147 1 2 0.589700 47.320999 0.029000 15.562000 # 2 
2148 1 2 0.589700 48.091003 0.799000 14.510000 # 2 
2149 1 1 -1.179400 48.119999 2.321000 13.452001 # 1 
2150 1 2 0.589700 47.334000 2.804000 13.708000 # 2 
2151 1 2 0.589700 48.105999 2.329000 12.495001 # 2 
2152 1 1 -1.179400 48.119999 2.321000 22.637999 # 1 
2153 1 2 0.589700 47.337997 2.800000 22.365000 # 2 
2154 1 2 0.589700 48.118000 1.531000 22.098000 # 2 
2155 1 1 -1.179400 42.104996 3.006000 24.059999 # 1 
2156 1 2 0.589700 42.076000 2.480000 23.261002 # 2 
2157 1 2 0.589700 41.306000 3.532000 24.031000 # 2 
2158 1 1 -1.179400 39.785000 7.437000 24.059999 # 1 
2159 1 2 0.589700 40.574997 7.977000 24.062000 # 2 
2160 1 2 0.589700 39.290001 7.739000 23.297998 # 2 
2161 1 1 -1.179400 44.425003 7.437000 24.059999 # 1 
2162 1 2 0.589700 44.924004 7.709000 23.290001 # 2 
2163 1 2 0.589700 44.443001 6.481000 24.032000 # 2 
2164 1 1 -1.179400 24.059999 24.059999 21.054001 # 1 
2165 1 2 0.589700 24.089001 23.261002 21.580000 # 2 
2166 1 2 0.589700 24.858999 24.031000 20.528000 # 2 
2167 1 1 -1.179400 26.380001 24.059999 16.622999 # 1 
2168 1 2 0.589700 25.590000 24.062000 16.083000 # 2 
2169 1 2 0.589700 26.875000 23.297998 16.320999 # 2 
2170 1 1 -1.179400 33.770000 24.059999 16.622999 # 1 
2171 1 2 0.589700 33.271000 23.290001 16.351000 # 2 
2172 1 2 0.589700 33.751999 24.032000 17.579000 # 2 
2173 1 1 -1.179400 30.074999 15.036000 24.059999 # 1 
2174 1 2 0.589700 30.046001 14.510000 23.261002 # 2 
2175 1 2 0.589700 29.275999 15.562000 24.031000 # 2 
2176 1 1 -1.179400 27.755001 19.466999 24.059999 # 1 
2177 1 2 0.589700 28.545000 20.007000 24.062000 # 2 
2178 1 2 0.589700 27.260000 19.768999 23.297998 # 2 
2179 1 1 -1.179400 32.395000 19.466999 24.059999 # 1 
2180 1 2 0.589700 32.893997 19.739000 23.290001 # 2 
2181 1 2 0.589700 32.412998 18.511000 24.032000 # 2 
2182 1 1 -1.179400 48.119999 12.030000 15.036000 # 1 
2183 1 2 0.589700 47.320999 12.059000 15.562000 # 2 
2184 1 2 0.589700 48.091003 12.829000 14.510000 # 2 
2185 1 1 -1.179400 48.119999 14.351000 13.452001 # 1 
2186 1 2 0.589700 47.334000 14.834000 13.708000 # 2 
2187 1 2 0.589700 48.105999 14.358999 12.495001 # 2 
2188 1 1 -1.179400 48.119999 14.351000 22.637999 # 1 
2189 1 2 0.589700 47.337997 14.830000 22.365000 # 2 
2190 1 2 0.589700 48.118000 13.561000 22.098000 # 2 
2191 1 1 -1.179400 36.090000 24.059999 21.054001 # 1 
2192 1 2 0.589700 36.118999 23.261002 21.580000 # 2 
2193 1 2 0.589700 36.889000 24.031000 20.528000 # 2 
2194 1 1 -1.179400 38.410000 24.059999 16.622999 # 1 
2195 1 2 0.589700 37.620003 24.062000 16.083000 # 2 
2196 1 2 0.589700 38.904999 23.297998 16.320999 # 2 
2197 1 1 -1.179400 45.799999 24.059999 16.622999 # 1 
2198 1 2 0.589700 45.300999 23.290001 16.351000 # 2 
2199 1 2 0.589700 45.781998 24.032000 17.579000 # 2 
2200 1 1 -1.179400 42.104996 15.036000 24.059999 # 1 
2201 1 2 0.589700 42.076000 14.510000 23.261002 # 2 
2202 1 2 0.589700 41.306000 15.562000 24.031000 # 2 
2203 1 1 -1.179400 39.785000 19.466999 24.059999 # 1 
2204 1 2 0.589700 40.574997 20.007000 24.062000 # 2 
2205 1 2 0.589700 39.290001 19.768999 23.297998 # 2 
2206 1 1 -1.179400 44.425003 19.466999 24.059999 # 1 
2207 1 2 0.589700 44.924004 19.739000 23.290001 # 2 
2208 1 2 0.589700 44.443001 18.511000 24.032000 # 2 
2209 1 1 -1.179400 12.030000 24.059999 3.006000 # 1 
2210 1 2 0.589700 11.231001 24.089001 3.532000 # 2 
2211 1 2 0.589700 12.000999 24.858999 2.480000 # 2 
2212 1 1 -1.179400 12.030000 26.380999 1.422000 # 1 
2213 1 2 0.589700 11.244000 26.863998 1.678000 # 2 
2214 1 2 0.589700 12.016000 26.389000 0.465000 # 2 
2215 1 1 -1.179400 12.030000 26.380999 10.608000 # 1 
2216 1 2 0.589700 11.247999 26.860001 10.334999 # 2 
2217 1 2 0.589700 12.028000 25.591000 10.067999 # 2 
2218 1 1 -1.179400 12.030000 33.769001 1.422000 # 1 
2219 1 2 0.589700 12.812000 33.290001 1.695000 # 2 
2220 1 2 0.589700 12.032000 34.558998 1.962000 # 2 
2221 1 1 -1.179400 12.030000 33.769001 10.608000 # 1 
2222 1 2 0.589700 12.816000 33.285999 10.352000 # 2 
2223 1 2 0.589700 12.044000 33.759998 11.565000 # 2 
2224 1 1 -1.179400 18.045000 33.084000 0.000000 # 1 
2225 1 2 0.589700 18.073999 33.610001 0.799000 # 2 
2226 1 2 0.589700 18.844000 32.557999 0.029000 # 2 
2227 1 1 -1.179400 18.045000 25.481998 2.321000 # 1 
2228 1 2 0.589700 17.263000 25.755001 2.800000 # 2 
2229 1 2 0.589700 18.042999 26.021999 1.531000 # 2 
2230 1 1 -1.179400 18.045000 34.667999 2.321000 # 1 
2231 1 2 0.589700 17.259001 34.411999 2.804000 # 2 
2232 1 2 0.589700 18.031000 35.625000 2.329000 # 2 
2233 1 1 -1.179400 18.045000 25.481998 9.709000 # 1 
2234 1 2 0.589700 18.831001 25.738001 9.226000 # 2 
2235 1 2 0.589700 18.059000 24.525002 9.700000 # 2 
2236 1 1 -1.179400 18.045000 34.667999 9.709000 # 1 
2237 1 2 0.589700 18.047001 34.128002 10.499000 # 2 
2238 1 2 0.589700 18.827000 34.395000 9.230000 # 2 
2239 1 1 -1.179400 15.725000 28.653000 0.000000 # 1 
2240 1 2 0.589700 15.226001 28.381001 0.770000 # 2 
2241 1 2 0.589700 15.707001 29.609001 0.028000 # 2 
2242 1 1 -1.179400 14.349999 24.059999 7.437000 # 1 
2243 1 2 0.589700 14.849000 24.830000 7.709000 # 2 
2244 1 2 0.589700 14.368000 24.087999 6.481000 # 2 
2245 1 1 -1.179400 14.292999 27.773001 2.210000 # 1 
2246 1 2 0.589700 14.811000 27.184999 2.759000 # 2 
2247 1 2 0.589700 13.527000 27.256001 1.961000 # 2 
2248 1 1 -1.179400 14.292999 27.773001 9.820000 # 1 
2249 1 2 0.589700 14.751000 28.053999 10.613001 # 2 
2250 1 2 0.589700 13.525000 27.299999 10.142000 # 2 
2251 1 1 -1.179400 14.292999 32.376999 2.210000 # 1 
2252 1 2 0.589700 14.025001 31.591000 2.686000 # 2 
2253 1 2 0.589700 14.783000 32.046001 1.456000 # 2 
2254 1 1 -1.179400 14.292999 32.376999 9.820000 # 1 
2255 1 2 0.589700 14.837000 32.903999 9.235000 # 2 
2256 1 2 0.589700 14.033999 31.623001 9.292000 # 2 
2257 1 1 -1.179400 15.782000 26.270000 3.713000 # 1 
2258 1 2 0.589700 16.049000 26.746002 4.499000 # 2 
2259 1 2 0.589700 15.292000 25.515999 4.044000 # 2 
2260 1 1 -1.179400 15.782000 33.880001 3.713000 # 1 
2261 1 2 0.589700 16.041000 33.352001 4.467000 # 2 
2262 1 2 0.589700 15.238000 33.294998 3.186000 # 2 
2263 1 1 -1.179400 15.782000 26.270000 8.317000 # 1 
2264 1 2 0.589700 16.548000 26.021000 8.834000 # 2 
2265 1 2 0.589700 15.264000 26.819000 8.905000 # 2 
2266 1 1 -1.179400 15.782000 33.880001 8.317000 # 1 
2267 1 2 0.589700 16.549999 34.202000 8.790000 # 2 
2268 1 2 0.589700 15.324000 34.673000 8.036000 # 2 
2269 1 1 -1.179400 20.365000 28.653000 0.000000 # 1 
2270 1 2 0.589700 20.860001 28.351000 0.762000 # 2 
2271 1 2 0.589700 19.575001 28.113001 -0.002000 # 2 
2272 1 1 -1.179400 21.740000 24.059999 7.437000 # 1 
2273 1 2 0.589700 21.245001 24.821999 7.739000 # 2 
2274 1 2 0.589700 22.530001 24.058001 7.977000 # 2 
2275 1 1 -1.179400 21.797001 27.773001 2.210000 # 1 
2276 1 2 0.589700 22.056000 28.527000 2.738000 # 2 
2277 1 2 0.589700 21.252998 27.246000 2.795000 # 2 
2278 1 1 -1.179400 21.797001 27.773001 9.820000 # 1 
2279 1 2 0.589700 21.307001 28.104000 10.573999 # 2 
2280 1 2 0.589700 22.065001 28.559000 9.344000 # 2 
2281 1 1 -1.179400 21.797001 32.376999 2.210000 # 1 
2282 1 2 0.589700 22.565001 32.850002 1.888000 # 2 
2283 1 2 0.589700 21.338999 32.096001 1.417000 # 2 
2284 1 1 -1.179400 21.797001 32.376999 9.820000 # 1 
2285 1 2 0.589700 22.563000 32.893997 10.069000 # 2 
2286 1 2 0.589700 21.278000 32.965000 9.271000 # 2 
2287 1 1 -1.179400 20.308001 26.270000 3.713000 # 1 
2288 1 2 0.589700 20.766001 25.476999 3.994000 # 2 
2289 1 2 0.589700 19.540001 25.948000 3.240000 # 2 
2290 1 1 -1.179400 20.308001 33.880001 3.713000 # 1 
2291 1 2 0.589700 19.542000 34.128998 3.196000 # 2 
2292 1 2 0.589700 20.827000 33.331001 3.125000 # 2 
2293 1 1 -1.179400 20.308001 26.270000 8.317000 # 1 
2294 1 2 0.589700 20.049000 26.798000 7.563000 # 2 
2295 1 2 0.589700 20.852001 26.855000 8.844000 # 2 
2296 1 1 -1.179400 20.308001 33.880001 8.317000 # 1 
2297 1 2 0.589700 20.797998 34.634003 7.986000 # 2 
2298 1 2 0.589700 20.041000 33.403999 7.531000 # 2 
2299 1 1 -1.179400 15.036000 30.074999 6.015000 # 1 
2300 1 2 0.589700 15.562000 30.874001 5.986000 # 2 
2301 1 2 0.589700 14.510000 30.104000 5.216000 # 2 
2302 1 1 -1.179400 21.054001 30.074999 6.015000 # 1 
2303 1 2 0.589700 21.580000 30.046001 6.814000 # 2 
2304 1 2 0.589700 20.528000 29.275999 6.044001 # 2 
2305 1 1 -1.179400 13.452001 30.074999 8.336000 # 1 
2306 1 2 0.589700 13.993999 30.070000 7.547000 # 2 
2307 1 2 0.589700 13.737000 29.305000 8.828000 # 2 
2308 1 1 -1.179400 22.637999 30.074999 8.336000 # 1 
2309 1 2 0.589700 22.376999 30.848999 8.835000 # 2 
2310 1 2 0.589700 23.594999 30.093000 8.347000 # 2 
2311 1 1 -1.179400 13.452001 30.074999 3.694000 # 1 
2312 1 2 0.589700 12.495001 30.057001 3.683000 # 2 
2313 1 2 0.589700 13.712999 29.300999 3.195000 # 2 
2314 1 1 -1.179400 22.637999 30.074999 3.694000 # 1 
2315 1 2 0.589700 22.096001 30.079998 4.483000 # 2 
2316 1 2 0.589700 22.353001 30.845001 3.202000 # 2 
2317 1 1 -1.179400 16.622999 27.755001 6.015000 # 1 
2318 1 2 0.589700 16.080000 28.542999 6.020000 # 2 
2319 1 2 0.589700 16.338001 27.263000 6.785000 # 2 
2320 1 1 -1.179400 19.466999 27.755001 6.015000 # 1 
2321 1 2 0.589700 18.510000 27.743000 5.997000 # 2 
2322 1 2 0.589700 19.728001 27.255001 5.241000 # 2 
2323 1 1 -1.179400 16.622999 32.395000 6.015000 # 1 
2324 1 2 0.589700 16.362000 32.895000 6.789000 # 2 
2325 1 2 0.589700 17.580000 32.407001 6.033000 # 2 
2326 1 1 -1.179400 19.466999 32.395000 6.015000 # 1 
2327 1 2 0.589700 20.009998 31.607000 6.010000 # 2 
2328 1 2 0.589700 19.752001 32.886997 5.245000 # 2 
2329 1 1 -1.179400 0.000000 36.090000 9.024000 # 1 
2330 1 2 0.589700 0.029000 35.291000 9.550000 # 2 
2331 1 2 0.589700 0.799000 36.061001 8.498000 # 2 
2332 1 1 -1.179400 2.320000 36.090000 4.593000 # 1 
2333 1 2 0.589700 1.530000 36.091999 4.053000 # 2 
2334 1 2 0.589700 2.815000 35.327999 4.291000 # 2 
2335 1 1 -1.179400 9.710000 36.090000 4.593000 # 1 
2336 1 2 0.589700 9.211000 35.320000 4.321000 # 2 
2337 1 2 0.589700 9.692000 36.062000 5.549000 # 2 
2338 1 1 -1.179400 0.000000 45.798996 1.422000 # 1 
2339 1 2 0.589700 0.782000 45.320000 1.695000 # 2 
2340 1 2 0.589700 0.002000 46.588997 1.962000 # 2 
2341 1 1 -1.179400 0.000000 45.798996 10.608000 # 1 
2342 1 2 0.589700 0.786000 45.316002 10.352000 # 2 
2343 1 2 0.589700 0.014000 45.790001 11.565000 # 2 
2344 1 1 -1.179400 6.015000 45.114002 0.000000 # 1 
2345 1 2 0.589700 6.044001 45.639999 0.799000 # 2 
2346 1 2 0.589700 6.814000 44.587997 0.029000 # 2 
2347 1 1 -1.179400 6.015000 37.512001 2.321000 # 1 
2348 1 2 0.589700 5.233000 37.785000 2.800000 # 2 
2349 1 2 0.589700 6.013000 38.052002 1.531000 # 2 
2350 1 1 -1.179400 6.015000 46.697998 2.321000 # 1 
2351 1 2 0.589700 5.229000 46.441998 2.804000 # 2 
2352 1 2 0.589700 6.001000 47.654999 2.329000 # 2 
2353 1 1 -1.179400 6.015000 37.512001 9.709000 # 1 
2354 1 2 0.589700 6.801000 37.767998 9.226000 # 2 
2355 1 2 0.589700 6.029000 36.555000 9.700000 # 2 
2356 1 1 -1.179400 6.015000 46.697998 9.709000 # 1 
2357 1 2 0.589700 6.017000 46.157997 10.499000 # 2 
2358 1 2 0.589700 6.797000 46.424999 9.230000 # 2 
2359 1 1 -1.179400 3.695000 40.682999 0.000000 # 1 
2360 1 2 0.589700 3.196000 40.410999 0.770000 # 2 
2361 1 2 0.589700 3.677000 41.639000 0.028000 # 2 
2362 1 1 -1.179400 2.320000 36.090000 7.437000 # 1 
2363 1 2 0.589700 2.819000 36.860001 7.709000 # 2 
2364 1 2 0.589700 2.338000 36.118000 6.481000 # 2 
2365 1 1 -1.179400 2.263000 39.803001 2.210000 # 1 
2366 1 2 0.589700 2.781000 39.215000 2.759000 # 2 
2367 1 2 0.589700 1.497000 39.285999 1.961000 # 2 
2368 1 1 -1.179400 2.263000 39.803001 9.820000 # 1 
2369 1 2 0.589700 2.721000 40.084000 10.613001 # 2 
2370 1 2 0.589700 1.495000 39.330002 10.142000 # 2 
2371 1 1 -1.179400 2.263000 44.407001 2.210000 # 1 
2372 1 2 0.589700 1.995000 43.621002 2.686000 # 2 
2373 1 2 0.589700 2.753000 44.076000 1.456000 # 2 
2374 1 1 -1.179400 2.263000 44.407001 9.820000 # 1 
2375 1 2 0.589700 2.807000 44.934002 9.235000 # 2 
2376 1 2 0.589700 2.004000 43.653000 9.292000 # 2 
2377 1 1 -1.179400 3.752000 38.299999 3.713000 # 1 
2378 1 2 0.589700 4.019000 38.776001 4.499000 # 2 
2379 1 2 0.589700 3.262000 37.546001 4.044000 # 2 
2380 1 1 -1.179400 3.752000 45.910000 3.713000 # 1 
2381 1 2 0.589700 4.011000 45.382000 4.467000 # 2 
2382 1 2 0.589700 3.208000 45.324997 3.186000 # 2 
2383 1 1 -1.179400 3.752000 38.299999 8.317000 # 1 
2384 1 2 0.589700 4.518000 38.050999 8.834000 # 2 
2385 1 2 0.589700 3.234000 38.848999 8.905000 # 2 
2386 1 1 -1.179400 3.752000 45.910000 8.317000 # 1 
2387 1 2 0.589700 4.520000 46.231998 8.790000 # 2 
2388 1 2 0.589700 3.294000 46.702999 8.036000 # 2 
2389 1 1 -1.179400 8.335000 40.682999 0.000000 # 1 
2390 1 2 0.589700 8.830000 40.380997 0.762000 # 2 
2391 1 2 0.589700 7.545000 40.142998 -0.002000 # 2 
2392 1 1 -1.179400 9.710000 36.090000 7.437000 # 1 
2393 1 2 0.589700 9.215000 36.852001 7.739000 # 2 
2394 1 2 0.589700 10.500000 36.087997 7.977000 # 2 
2395 1 1 -1.179400 9.767000 39.803001 2.210000 # 1 
2396 1 2 0.589700 10.025999 40.556999 2.738000 # 2 
2397 1 2 0.589700 9.223000 39.276001 2.795000 # 2 
2398 1 1 -1.179400 9.767000 39.803001 9.820000 # 1 
2399 1 2 0.589700 9.277000 40.134003 10.573999 # 2 
2400 1 2 0.589700 10.035000 40.588997 9.344000 # 2 
2401 1 1 -1.179400 9.767000 44.407001 2.210000 # 1 
2402 1 2 0.589700 10.535000 44.879997 1.888000 # 2 
2403 1 2 0.589700 9.309000 44.125999 1.417000 # 2 
2404 1 1 -1.179400 9.767000 44.407001 9.820000 # 1 
2405 1 2 0.589700 10.533000 44.924004 10.069000 # 2 
2406 1 2 0.589700 9.248000 44.994999 9.271000 # 2 
2407 1 1 -1.179400 8.278000 38.299999 3.713000 # 1 
2408 1 2 0.589700 8.736000 37.507000 3.994000 # 2 
2409 1 2 0.589700 7.510000 37.978001 3.240000 # 2 
2410 1 1 -1.179400 8.278000 45.910000 3.713000 # 1 
2411 1 2 0.589700 7.512000 46.159000 3.196000 # 2 
2412 1 2 0.589700 8.797000 45.361000 3.125000 # 2 
2413 1 1 -1.179400 8.278000 38.299999 8.317000 # 1 
2414 1 2 0.589700 8.019000 38.828003 7.563000 # 2 
2415 1 2 0.589700 8.822000 38.884998 8.844000 # 2 
2416 1 1 -1.179400 8.278000 45.910000 8.317000 # 1 
2417 1 2 0.589700 8.768000 46.664001 7.986000 # 2 
2418 1 2 0.589700 8.011000 45.433998 7.531000 # 2 
2419 1 1 -1.179400 3.006000 42.104996 6.015000 # 1 
2420 1 2 0.589700 3.532000 42.903999 5.986000 # 2 
2421 1 2 0.589700 2.480000 42.133999 5.216000 # 2 
2422 1 1 -1.179400 9.024000 42.104996 6.015000 # 1 
2423 1 2 0.589700 9.550000 42.076000 6.814000 # 2 
2424 1 2 0.589700 8.498000 41.306000 6.044001 # 2 
2425 1 1 -1.179400 1.422000 42.104996 8.336000 # 1 
2426 1 2 0.589700 1.964000 42.099998 7.547000 # 2 
2427 1 2 0.589700 1.707000 41.334999 8.828000 # 2 
2428 1 1 -1.179400 10.608000 42.104996 8.336000 # 1 
2429 1 2 0.589700 10.347000 42.878998 8.835000 # 2 
2430 1 2 0.589700 11.565000 42.122997 8.347000 # 2 
2431 1 1 -1.179400 1.422000 42.104996 3.694000 # 1 
2432 1 2 0.589700 0.465000 42.087002 3.683000 # 2 
2433 1 2 0.589700 1.683000 41.331001 3.195000 # 2 
2434 1 1 -1.179400 10.608000 42.104996 3.694000 # 1 
2435 1 2 0.589700 10.066000 42.110001 4.483000 # 2 
2436 1 2 0.589700 10.323000 42.875000 3.202000 # 2 
2437 1 1 -1.179400 4.593000 39.785000 6.015000 # 1 
2438 1 2 0.589700 4.050000 40.573002 6.020000 # 2 
2439 1 2 0.589700 4.308000 39.292999 6.785000 # 2 
2440 1 1 -1.179400 7.437000 39.785000 6.015000 # 1 
2441 1 2 0.589700 6.480000 39.772999 5.997000 # 2 
2442 1 2 0.589700 7.698000 39.285000 5.241000 # 2 
2443 1 1 -1.179400 4.593000 44.425003 6.015000 # 1 
2444 1 2 0.589700 4.332000 44.924999 6.789000 # 2 
2445 1 2 0.589700 5.550000 44.436996 6.033000 # 2 
2446 1 1 -1.179400 7.437000 44.425003 6.015000 # 1 
2447 1 2 0.589700 7.980000 43.637001 6.010000 # 2 
2448 1 2 0.589700 7.722000 44.917000 5.245000 # 2 
2449 1 1 -1.179400 0.000000 33.769001 1.422000 # 1 
2450 1 2 0.589700 0.782000 33.290001 1.695000 # 2 
2451 1 2 0.589700 0.002000 34.558998 1.962000 # 2 
2452 1 1 -1.179400 0.000000 33.769001 10.608000 # 1 
2453 1 2 0.589700 0.786000 33.285999 10.352000 # 2 
2454 1 2 0.589700 0.014000 33.759998 11.565000 # 2 
2455 1 1 -1.179400 6.015000 33.084000 0.000000 # 1 
2456 1 2 0.589700 6.044001 33.610001 0.799000 # 2 
2457 1 2 0.589700 6.814000 32.557999 0.029000 # 2 
2458 1 1 -1.179400 6.015000 25.481998 2.321000 # 1 
2459 1 2 0.589700 5.233000 25.755001 2.800000 # 2 
2460 1 2 0.589700 6.013000 26.021999 1.531000 # 2 
2461 1 1 -1.179400 6.015000 34.667999 2.321000 # 1 
2462 1 2 0.589700 5.229000 34.411999 2.804000 # 2 
2463 1 2 0.589700 6.001000 35.625000 2.329000 # 2 
2464 1 1 -1.179400 6.015000 25.481998 9.709000 # 1 
2465 1 2 0.589700 6.801000 25.738001 9.226000 # 2 
2466 1 2 0.589700 6.029000 24.525002 9.700000 # 2 
2467 1 1 -1.179400 6.015000 34.667999 9.709000 # 1 
2468 1 2 0.589700 6.017000 34.128002 10.499000 # 2 
2469 1 2 0.589700 6.797000 34.395000 9.230000 # 2 
2470 1 1 -1.179400 3.695000 28.653000 0.000000 # 1 
2471 1 2 0.589700 3.196000 28.381001 0.770000 # 2 
2472 1 2 0.589700 3.677000 29.609001 0.028000 # 2 
2473 1 1 -1.179400 2.320000 24.059999 7.437000 # 1 
2474 1 2 0.589700 2.819000 24.830000 7.709000 # 2 
2475 1 2 0.589700 2.338000 24.087999 6.481000 # 2 
2476 1 1 -1.179400 2.263000 27.773001 2.210000 # 1 
2477 1 2 0.589700 2.781000 27.184999 2.759000 # 2 
2478 1 2 0.589700 1.497000 27.256001 1.961000 # 2 
2479 1 1 -1.179400 2.263000 27.773001 9.820000 # 1 
2480 1 2 0.589700 2.721000 28.053999 10.613001 # 2 
2481 1 2 0.589700 1.495000 27.299999 10.142000 # 2 
2482 1 1 -1.179400 2.263000 32.376999 2.210000 # 1 
2483 1 2 0.589700 1.995000 31.591000 2.686000 # 2 
2484 1 2 0.589700 2.753000 32.046001 1.456000 # 2 
2485 1 1 -1.179400 2.263000 32.376999 9.820000 # 1 
2486 1 2 0.589700 2.807000 32.903999 9.235000 # 2 
2487 1 2 0.589700 2.004000 31.623001 9.292000 # 2 
2488 1 1 -1.179400 3.752000 26.270000 3.713000 # 1 
2489 1 2 0.589700 4.019000 26.746002 4.499000 # 2 
2490 1 2 0.589700 3.262000 25.515999 4.044000 # 2 
2491 1 1 -1.179400 3.752000 33.880001 3.713000 # 1 
2492 1 2 0.589700 4.011000 33.352001 4.467000 # 2 
2493 1 2 0.589700 3.208000 33.294998 3.186000 # 2 
2494 1 1 -1.179400 3.752000 26.270000 8.317000 # 1 
2495 1 2 0.589700 4.518000 26.021000 8.834000 # 2 
2496 1 2 0.589700 3.234000 26.819000 8.905000 # 2 
2497 1 1 -1.179400 3.752000 33.880001 8.317000 # 1 
2498 1 2 0.589700 4.520000 34.202000 8.790000 # 2 
2499 1 2 0.589700 3.294000 34.673000 8.036000 # 2 
2500 1 1 -1.179400 8.335000 28.653000 0.000000 # 1 
2501 1 2 0.589700 8.830000 28.351000 0.762000 # 2 
2502 1 2 0.589700 7.545000 28.113001 -0.002000 # 2 
2503 1 1 -1.179400 9.710000 24.059999 7.437000 # 1 
2504 1 2 0.589700 9.215000 24.821999 7.739000 # 2 
2505 1 2 0.589700 10.500000 24.058001 7.977000 # 2 
2506 1 1 -1.179400 9.767000 27.773001 2.210000 # 1 
2507 1 2 0.589700 10.025999 28.527000 2.738000 # 2 
2508 1 2 0.589700 9.223000 27.246000 2.795000 # 2 
2509 1 1 -1.179400 9.767000 27.773001 9.820000 # 1 
2510 1 2 0.589700 9.277000 28.104000 10.573999 # 2 
2511 1 2 0.589700 10.035000 28.559000 9.344000 # 2 
2512 1 1 -1.179400 9.767000 32.376999 2.210000 # 1 
2513 1 2 0.589700 10.535000 32.850002 1.888000 # 2 
2514 1 2 0.589700 9.309000 32.096001 1.417000 # 2 
2515 1 1 -1.179400 9.767000 32.376999 9.820000 # 1 
2516 1 2 0.589700 10.533000 32.893997 10.069000 # 2 
2517 1 2 0.589700 9.248000 32.965000 9.271000 # 2 
2518 1 1 -1.179400 8.278000 26.270000 3.713000 # 1 
2519 1 2 0.589700 8.736000 25.476999 3.994000 # 2 
2520 1 2 0.589700 7.510000 25.948000 3.240000 # 2 
2521 1 1 -1.179400 8.278000 33.880001 3.713000 # 1 
2522 1 2 0.589700 7.512000 34.128998 3.196000 # 2 
2523 1 2 0.589700 8.797000 33.331001 3.125000 # 2 
2524 1 1 -1.179400 8.278000 26.270000 8.317000 # 1 
2525 1 2 0.589700 8.019000 26.798000 7.563000 # 2 
2526 1 2 0.589700 8.822000 26.855000 8.844000 # 2 
2527 1 1 -1.179400 8.278000 33.880001 8.317000 # 1 
2528 1 2 0.589700 8.768000 34.634003 7.986000 # 2 
2529 1 2 0.589700 8.011000 33.403999 7.531000 # 2 
2530 1 1 -1.179400 3.006000 30.074999 6.015000 # 1 
2531 1 2 0.589700 3.532000 30.874001 5.986000 # 2 
2532 1 2 0.589700 2.480000 30.104000 5.216000 # 2 
2533 1 1 -1.179400 9.024000 30.074999 6.015000 # 1 
2534 1 2 0.589700 9.550000 30.046001 6.814000 # 2 
2535 1 2 0.589700 8.498000 29.275999 6.044001 # 2 
2536 1 1 -1.179400 1.422000 30.074999 8.336000 # 1 
2537 1 2 0.589700 1.964000 30.070000 7.547000 # 2 
2538 1 2 0.589700 1.707000 29.305000 8.828000 # 2 
2539 1 1 -1.179400 10.608000 30.074999 8.336000 # 1 
2540 1 2 0.589700 10.347000 30.848999 8.835000 # 2 
2541 1 2 0.589700 11.565000 30.093000 8.347000 # 2 
2542 1 1 -1.179400 1.422000 30.074999 3.694000 # 1 
2543 1 2 0.589700 0.465000 30.057001 3.683000 # 2 
2544 1 2 0.589700 1.683000 29.300999 3.195000 # 2 
2545 1 1 -1.179400 10.608000 30.074999 3.694000 # 1 
2546 1 2 0.589700 10.066000 30.079998 4.483000 # 2 
2547 1 2 0.589700 10.323000 30.845001 3.202000 # 2 
2548 1 1 -1.179400 4.593000 27.755001 6.015000 # 1 
2549 1 2 0.589700 4.050000 28.542999 6.020000 # 2 
2550 1 2 0.589700 4.308000 27.263000 6.785000 # 2 
2551 1 1 -1.179400 7.437000 27.755001 6.015000 # 1 
2552 1 2 0.589700 6.480000 27.743000 5.997000 # 2 
2553 1 2 0.589700 7.698000 27.255001 5.241000 # 2 
2554 1 1 -1.179400 4.593000 32.395000 6.015000 # 1 
2555 1 2 0.589700 4.332000 32.895000 6.789000 # 2 
2556 1 2 0.589700 5.550000 32.407001 6.033000 # 2 
2557 1 1 -1.179400 7.437000 32.395000 6.015000 # 1 
2558 1 2 0.589700 7.980000 31.607000 6.010000 # 2 
2559 1 2 0.589700 7.722000 32.886997 5.245000 # 2 
2560 1 1 -1.179400 6.015000 27.066000 12.030000 # 1 
2561 1 2 0.589700 5.986000 26.540001 11.231001 # 2 
2562 1 2 0.589700 5.216000 27.592001 12.000999 # 2 
2563 1 1 -1.179400 3.695000 31.497000 12.030000 # 1 
2564 1 2 0.589700 4.485000 32.037003 12.032000 # 2 
2565 1 2 0.589700 3.200000 31.799000 11.268000 # 2 
2566 1 1 -1.179400 8.335000 31.497000 12.030000 # 1 
2567 1 2 0.589700 8.834000 31.768999 11.260000 # 2 
2568 1 2 0.589700 8.353000 30.541000 12.002000 # 2 
2569 1 1 -1.179400 0.000000 33.769001 13.452001 # 1 
2570 1 2 0.589700 0.782000 33.290001 13.725000 # 2 
2571 1 2 0.589700 0.002000 34.558998 13.992000 # 2 
2572 1 1 -1.179400 0.000000 33.769001 22.637999 # 1 
2573 1 2 0.589700 0.786000 33.285999 22.382000 # 2 
2574 1 2 0.589700 0.014000 33.759998 23.594999 # 2 
2575 1 1 -1.179400 6.015000 33.084000 12.030000 # 1 
2576 1 2 0.589700 6.044001 33.610001 12.829000 # 2 
2577 1 2 0.589700 6.814000 32.557999 12.059000 # 2 
2578 1 1 -1.179400 6.015000 25.481998 14.351000 # 1 
2579 1 2 0.589700 5.233000 25.755001 14.830000 # 2 
2580 1 2 0.589700 6.013000 26.021999 13.561000 # 2 
2581 1 1 -1.179400 6.015000 34.667999 14.351000 # 1 
2582 1 2 0.589700 5.229000 34.411999 14.834000 # 2 
2583 1 2 0.589700 6.001000 35.625000 14.358999 # 2 
2584 1 1 -1.179400 6.015000 25.481998 21.738998 # 1 
2585 1 2 0.589700 6.801000 25.738001 21.256001 # 2 
2586 1 2 0.589700 6.029000 24.525002 21.730001 # 2 
2587 1 1 -1.179400 6.015000 34.667999 21.738998 # 1 
2588 1 2 0.589700 6.017000 34.128002 22.528999 # 2 
2589 1 2 0.589700 6.797000 34.395000 21.259998 # 2 
2590 1 1 -1.179400 3.695000 28.653000 12.030000 # 1 
2591 1 2 0.589700 3.196000 28.381001 12.799999 # 2 
2592 1 2 0.589700 3.677000 29.609001 12.058001 # 2 
2593 1 1 -1.179400 2.320000 24.059999 19.466999 # 1 
2594 1 2 0.589700 2.819000 24.830000 19.739000 # 2 
2595 1 2 0.589700 2.338000 24.087999 18.511000 # 2 
2596 1 1 -1.179400 2.263000 27.773001 14.240000 # 1 
2597 1 2 0.589700 2.781000 27.184999 14.789000 # 2 
2598 1 2 0.589700 1.497000 27.256001 13.990999 # 2 
2599 1 1 -1.179400 2.263000 27.773001 21.849998 # 1 
2600 1 2 0.589700 2.721000 28.053999 22.643002 # 2 
2601 1 2 0.589700 1.495000 27.299999 22.172001 # 2 
2602 1 1 -1.179400 2.263000 32.376999 14.240000 # 1 
2603 1 2 0.589700 1.995000 31.591000 14.716001 # 2 
2604 1 2 0.589700 2.753000 32.046001 13.486000 # 2 
2605 1 1 -1.179400 2.263000 32.376999 21.849998 # 1 
2606 1 2 0.589700 2.807000 32.903999 21.264999 # 2 
2607 1 2 0.589700 2.004000 31.623001 21.322001 # 2 
2608 1 1 -1.179400 3.752000 26.270000 15.743000 # 1 
2609 1 2 0.589700 4.019000 26.746002 16.528999 # 2 
2610 1 2 0.589700 3.262000 25.515999 16.074001 # 2 
2611 1 1 -1.179400 3.752000 33.880001 15.743000 # 1 
2612 1 2 0.589700 4.011000 33.352001 16.497000 # 2 
2613 1 2 0.589700 3.208000 33.294998 15.216000 # 2 
2614 1 1 -1.179400 3.752000 26.270000 20.347002 # 1 
2615 1 2 0.589700 4.518000 26.021000 20.864000 # 2 
2616 1 2 0.589700 3.234000 26.819000 20.934999 # 2 
2617 1 1 -1.179400 3.752000 33.880001 20.347002 # 1 
2618 1 2 0.589700 4.520000 34.202000 20.820000 # 2 
2619 1 2 0.589700 3.294000 34.673000 20.066002 # 2 
2620 1 1 -1.179400 8.335000 28.653000 12.030000 # 1 
2621 1 2 0.589700 8.830000 28.351000 12.792000 # 2 
2622 1 2 0.589700 7.545000 28.113001 12.028000 # 2 
2623 1 1 -1.179400 9.710000 24.059999 19.466999 # 1 
2624 1 2 0.589700 9.215000 24.821999 19.768999 # 2 
2625 1 2 0.589700 10.500000 24.058001 20.007000 # 2 
2626 1 1 -1.179400 9.767000 27.773001 14.240000 # 1 
2627 1 2 0.589700 10.025999 28.527000 14.768000 # 2 
2628 1 2 0.589700 9.223000 27.246000 14.825000 # 2 
2629 1 1 -1.179400 9.767000 27.773001 21.849998 # 1 
2630 1 2 0.589700 9.277000 28.104000 22.604000 # 2 
2631 1 2 0.589700 10.035000 28.559000 21.373999 # 2 
2632 1 1 -1.179400 9.767000 32.376999 14.240000 # 1 
2633 1 2 0.589700 10.535000 32.850002 13.918000 # 2 
2634 1 2 0.589700 9.309000 32.096001 13.447000 # 2 
2635 1 1 -1.179400 9.767000 32.376999 21.849998 # 1 
2636 1 2 0.589700 10.533000 32.893997 22.099001 # 2 
2637 1 2 0.589700 9.248000 32.965000 21.301001 # 2 
2638 1 1 -1.179400 8.278000 26.270000 15.743000 # 1 
2639 1 2 0.589700 8.736000 25.476999 16.024000 # 2 
2640 1 2 0.589700 7.510000 25.948000 15.270000 # 2 
2641 1 1 -1.179400 8.278000 33.880001 15.743000 # 1 
2642 1 2 0.589700 7.512000 34.128998 15.226001 # 2 
2643 1 2 0.589700 8.797000 33.331001 15.155000 # 2 
2644 1 1 -1.179400 8.278000 26.270000 20.347002 # 1 
2645 1 2 0.589700 8.019000 26.798000 19.593000 # 2 
2646 1 2 0.589700 8.822000 26.855000 20.874001 # 2 
2647 1 1 -1.179400 8.278000 33.880001 20.347002 # 1 
2648 1 2 0.589700 8.768000 34.634003 20.016001 # 2 
2649 1 2 0.589700 8.011000 33.403999 19.561001 # 2 
2650 1 1 -1.179400 3.006000 30.074999 18.045000 # 1 
2651 1 2 0.589700 3.532000 30.874001 18.015999 # 2 
2652 1 2 0.589700 2.480000 30.104000 17.246000 # 2 
2653 1 1 -1.179400 9.024000 30.074999 18.045000 # 1 
2654 1 2 0.589700 9.550000 30.046001 18.844000 # 2 
2655 1 2 0.589700 8.498000 29.275999 18.073999 # 2 
2656 1 1 -1.179400 1.422000 30.074999 20.366001 # 1 
2657 1 2 0.589700 1.964000 30.070000 19.577000 # 2 
2658 1 2 0.589700 1.707000 29.305000 20.858000 # 2 
2659 1 1 -1.179400 10.608000 30.074999 20.366001 # 1 
2660 1 2 0.589700 10.347000 30.848999 20.865000 # 2 
2661 1 2 0.589700 11.565000 30.093000 20.376999 # 2 
2662 1 1 -1.179400 1.422000 30.074999 15.724000 # 1 
2663 1 2 0.589700 0.465000 30.057001 15.713000 # 2 
2664 1 2 0.589700 1.683000 29.300999 15.225000 # 2 
2665 1 1 -1.179400 10.608000 30.074999 15.724000 # 1 
2666 1 2 0.589700 10.066000 30.079998 16.513000 # 2 
2667 1 2 0.589700 10.323000 30.845001 15.232000 # 2 
2668 1 1 -1.179400 4.593000 27.755001 18.045000 # 1 
2669 1 2 0.589700 4.050000 28.542999 18.049999 # 2 
2670 1 2 0.589700 4.308000 27.263000 18.815001 # 2 
2671 1 1 -1.179400 7.437000 27.755001 18.045000 # 1 
2672 1 2 0.589700 6.480000 27.743000 18.027000 # 2 
2673 1 2 0.589700 7.698000 27.255001 17.271000 # 2 
2674 1 1 -1.179400 4.593000 32.395000 18.045000 # 1 
2675 1 2 0.589700 4.332000 32.895000 18.819000 # 2 
2676 1 2 0.589700 5.550000 32.407001 18.063000 # 2 
2677 1 1 -1.179400 7.437000 32.395000 18.045000 # 1 
2678 1 2 0.589700 7.980000 31.607000 18.040001 # 2 
2679 1 2 0.589700 7.722000 32.886997 17.275000 # 2 
2680 1 1 -1.179400 24.059999 24.059999 3.006000 # 1 
2681 1 2 0.589700 23.261002 24.089001 3.532000 # 2 
2682 1 2 0.589700 24.031000 24.858999 2.480000 # 2 
2683 1 1 -1.179400 24.059999 26.380999 1.422000 # 1 
2684 1 2 0.589700 23.274000 26.863998 1.678000 # 2 
2685 1 2 0.589700 24.046000 26.389000 0.465000 # 2 
2686 1 1 -1.179400 24.059999 26.380999 10.608000 # 1 
2687 1 2 0.589700 23.278000 26.860001 10.334999 # 2 
2688 1 2 0.589700 24.058001 25.591000 10.067999 # 2 
2689 1 1 -1.179400 12.030000 36.090000 9.024000 # 1 
2690 1 2 0.589700 12.059000 35.291000 9.550000 # 2 
2691 1 2 0.589700 12.829000 36.061001 8.498000 # 2 
2692 1 1 -1.179400 14.349999 36.090000 4.593000 # 1 
2693 1 2 0.589700 13.559999 36.091999 4.053000 # 2 
2694 1 2 0.589700 14.845000 35.327999 4.291000 # 2 
2695 1 1 -1.179400 21.740000 36.090000 4.593000 # 1 
2696 1 2 0.589700 21.240999 35.320000 4.321000 # 2 
2697 1 2 0.589700 21.722000 36.062000 5.549000 # 2 
2698 1 1 -1.179400 12.030000 36.090000 3.006000 # 1 
2699 1 2 0.589700 11.231001 36.118999 3.532000 # 2 
2700 1 2 0.589700 12.000999 36.889000 2.480000 # 2 
2701 1 1 -1.179400 12.030000 38.410999 1.422000 # 1 
2702 1 2 0.589700 11.244000 38.894001 1.678000 # 2 
2703 1 2 0.589700 12.016000 38.419003 0.465000 # 2 
2704 1 1 -1.179400 12.030000 38.410999 10.608000 # 1 
2705 1 2 0.589700 11.247999 38.889999 10.334999 # 2 
2706 1 2 0.589700 12.028000 37.620998 10.067999 # 2 
2707 1 1 -1.179400 12.030000 45.798996 1.422000 # 1 
2708 1 2 0.589700 12.812000 45.320000 1.695000 # 2 
2709 1 2 0.589700 12.032000 46.588997 1.962000 # 2 
2710 1 1 -1.179400 12.030000 45.798996 10.608000 # 1 
2711 1 2 0.589700 12.816000 45.316002 10.352000 # 2 
2712 1 2 0.589700 12.044000 45.790001 11.565000 # 2 
2713 1 1 -1.179400 18.045000 45.114002 0.000000 # 1 
2714 1 2 0.589700 18.073999 45.639999 0.799000 # 2 
2715 1 2 0.589700 18.844000 44.587997 0.029000 # 2 
2716 1 1 -1.179400 18.045000 37.512001 2.321000 # 1 
2717 1 2 0.589700 17.263000 37.785000 2.800000 # 2 
2718 1 2 0.589700 18.042999 38.052002 1.531000 # 2 
2719 1 1 -1.179400 18.045000 46.697998 2.321000 # 1 
2720 1 2 0.589700 17.259001 46.441998 2.804000 # 2 
2721 1 2 0.589700 18.031000 47.654999 2.329000 # 2 
2722 1 1 -1.179400 18.045000 37.512001 9.709000 # 1 
2723 1 2 0.589700 18.831001 37.767998 9.226000 # 2 
2724 1 2 0.589700 18.059000 36.555000 9.700000 # 2 
2725 1 1 -1.179400 18.045000 46.697998 9.709000 # 1 
2726 1 2 0.589700 18.047001 46.157997 10.499000 # 2 
2727 1 2 0.589700 18.827000 46.424999 9.230000 # 2 
2728 1 1 -1.179400 15.725000 40.682999 0.000000 # 1 
2729 1 2 0.589700 15.226001 40.410999 0.770000 # 2 
2730 1 2 0.589700 15.707001 41.639000 0.028000 # 2 
2731 1 1 -1.179400 14.349999 36.090000 7.437000 # 1 
2732 1 2 0.589700 14.849000 36.860001 7.709000 # 2 
2733 1 2 0.589700 14.368000 36.118000 6.481000 # 2 
2734 1 1 -1.179400 14.292999 39.803001 2.210000 # 1 
2735 1 2 0.589700 14.811000 39.215000 2.759000 # 2 
2736 1 2 0.589700 13.527000 39.285999 1.961000 # 2 
2737 1 1 -1.179400 14.292999 39.803001 9.820000 # 1 
2738 1 2 0.589700 14.751000 40.084000 10.613001 # 2 
2739 1 2 0.589700 13.525000 39.330002 10.142000 # 2 
2740 1 1 -1.179400 14.292999 44.407001 2.210000 # 1 
2741 1 2 0.589700 14.025001 43.621002 2.686000 # 2 
2742 1 2 0.589700 14.783000 44.076000 1.456000 # 2 
2743 1 1 -1.179400 14.292999 44.407001 9.820000 # 1 
2744 1 2 0.589700 14.837000 44.934002 9.235000 # 2 
2745 1 2 0.589700 14.033999 43.653000 9.292000 # 2 
2746 1 1 -1.179400 15.782000 38.299999 3.713000 # 1 
2747 1 2 0.589700 16.049000 38.776001 4.499000 # 2 
2748 1 2 0.589700 15.292000 37.546001 4.044000 # 2 
2749 1 1 -1.179400 15.782000 45.910000 3.713000 # 1 
2750 1 2 0.589700 16.041000 45.382000 4.467000 # 2 
2751 1 2 0.589700 15.238000 45.324997 3.186000 # 2 
2752 1 1 -1.179400 15.782000 38.299999 8.317000 # 1 
2753 1 2 0.589700 16.548000 38.050999 8.834000 # 2 
2754 1 2 0.589700 15.264000 38.848999 8.905000 # 2 
2755 1 1 -1.179400 15.782000 45.910000 8.317000 # 1 
2756 1 2 0.589700 16.549999 46.231998 8.790000 # 2 
2757 1 2 0.589700 15.324000 46.702999 8.036000 # 2 
2758 1 1 -1.179400 20.365000 40.682999 0.000000 # 1 
2759 1 2 0.589700 20.860001 40.380997 0.762000 # 2 
2760 1 2 0.589700 19.575001 40.142998 -0.002000 # 2 
2761 1 1 -1.179400 21.740000 36.090000 7.437000 # 1 
2762 1 2 0.589700 21.245001 36.852001 7.739000 # 2 
2763 1 2 0.589700 22.530001 36.087997 7.977000 # 2 
2764 1 1 -1.179400 21.797001 39.803001 2.210000 # 1 
2765 1 2 0.589700 22.056000 40.556999 2.738000 # 2 
2766 1 2 0.589700 21.252998 39.276001 2.795000 # 2 
2767 1 1 -1.179400 21.797001 39.803001 9.820000 # 1 
2768 1 2 0.589700 21.307001 40.134003 10.573999 # 2 
2769 1 2 0.589700 22.065001 40.588997 9.344000 # 2 
2770 1 1 -1.179400 21.797001 44.407001 2.210000 # 1 
2771 1 2 0.589700 22.565001 44.879997 1.888000 # 2 
2772 1 2 0.589700 21.338999 44.125999 1.417000 # 2 
2773 1 1 -1.179400 21.797001 44.407001 9.820000 # 1 
2774 1 2 0.589700 22.563000 44.924004 10.069000 # 2 
2775 1 2 0.589700 21.278000 44.994999 9.271000 # 2 
2776 1 1 -1.179400 20.308001 38.299999 3.713000 # 1 
2777 1 2 0.589700 20.766001 37.507000 3.994000 # 2 
2778 1 2 0.589700 19.540001 37.978001 3.240000 # 2 
2779 1 1 -1.179400 20.308001 45.910000 3.713000 # 1 
2780 1 2 0.589700 19.542000 46.159000 3.196000 # 2 
2781 1 2 0.589700 20.827000 45.361000 3.125000 # 2 
2782 1 1 -1.179400 20.308001 38.299999 8.317000 # 1 
2783 1 2 0.589700 20.049000 38.828003 7.563000 # 2 
2784 1 2 0.589700 20.852001 38.884998 8.844000 # 2 
2785 1 1 -1.179400 20.308001 45.910000 8.317000 # 1 
2786 1 2 0.589700 20.797998 46.664001 7.986000 # 2 
2787 1 2 0.589700 20.041000 45.433998 7.531000 # 2 
2788 1 1 -1.179400 15.036000 42.104996 6.015000 # 1 
2789 1 2 0.589700 15.562000 42.903999 5.986000 # 2 
2790 1 2 0.589700 14.510000 42.133999 5.216000 # 2 
2791 1 1 -1.179400 21.054001 42.104996 6.015000 # 1 
2792 1 2 0.589700 21.580000 42.076000 6.814000 # 2 
2793 1 2 0.589700 20.528000 41.306000 6.044001 # 2 
2794 1 1 -1.179400 13.452001 42.104996 8.336000 # 1 
2795 1 2 0.589700 13.993999 42.099998 7.547000 # 2 
2796 1 2 0.589700 13.737000 41.334999 8.828000 # 2 
2797 1 1 -1.179400 22.637999 42.104996 8.336000 # 1 
2798 1 2 0.589700 22.376999 42.878998 8.835000 # 2 
2799 1 2 0.589700 23.594999 42.122997 8.347000 # 2 
2800 1 1 -1.179400 13.452001 42.104996 3.694000 # 1 
2801 1 2 0.589700 12.495001 42.087002 3.683000 # 2 
2802 1 2 0.589700 13.712999 41.331001 3.195000 # 2 
2803 1 1 -1.179400 22.637999 42.104996 3.694000 # 1 
2804 1 2 0.589700 22.096001 42.110001 4.483000 # 2 
2805 1 2 0.589700 22.353001 42.875000 3.202000 # 2 
2806 1 1 -1.179400 16.622999 39.785000 6.015000 # 1 
2807 1 2 0.589700 16.080000 40.573002 6.020000 # 2 
2808 1 2 0.589700 16.338001 39.292999 6.785000 # 2 
2809 1 1 -1.179400 19.466999 39.785000 6.015000 # 1 
2810 1 2 0.589700 18.510000 39.772999 5.997000 # 2 
2811 1 2 0.589700 19.728001 39.285000 5.241000 # 2 
2812 1 1 -1.179400 16.622999 44.425003 6.015000 # 1 
2813 1 2 0.589700 16.362000 44.924999 6.789000 # 2 
2814 1 2 0.589700 17.580000 44.436996 6.033000 # 2 
2815 1 1 -1.179400 19.466999 44.425003 6.015000 # 1 
2816 1 2 0.589700 20.009998 43.637001 6.010000 # 2 
2817 1 2 0.589700 19.752001 44.917000 5.245000 # 2 
2818 1 1 -1.179400 18.045000 27.066000 12.030000 # 1 
2819 1 2 0.589700 18.015999 26.540001 11.231001 # 2 
2820 1 2 0.589700 17.246000 27.592001 12.000999 # 2 
2821 1 1 -1.179400 15.725000 31.497000 12.030000 # 1 
2822 1 2 0.589700 16.514999 32.037003 12.032000 # 2 
2823 1 2 0.589700 15.230000 31.799000 11.268000 # 2 
2824 1 1 -1.179400 20.365000 31.497000 12.030000 # 1 
2825 1 2 0.589700 20.864000 31.768999 11.260000 # 2 
2826 1 2 0.589700 20.382999 30.541000 12.002000 # 2 
2827 1 1 -1.179400 12.030000 24.059999 15.036000 # 1 
2828 1 2 0.589700 11.231001 24.089001 15.562000 # 2 
2829 1 2 0.589700 12.000999 24.858999 14.510000 # 2 
2830 1 1 -1.179400 12.030000 26.380999 13.452001 # 1 
2831 1 2 0.589700 11.244000 26.863998 13.708000 # 2 
2832 1 2 0.589700 12.016000 26.389000 12.495001 # 2 
2833 1 1 -1.179400 12.030000 26.380999 22.637999 # 1 
2834 1 2 0.589700 11.247999 26.860001 22.365000 # 2 
2835 1 2 0.589700 12.028000 25.591000 22.098000 # 2 
2836 1 1 -1.179400 12.030000 33.769001 13.452001 # 1 
2837 1 2 0.589700 12.812000 33.290001 13.725000 # 2 
2838 1 2 0.589700 12.032000 34.558998 13.992000 # 2 
2839 1 1 -1.179400 12.030000 33.769001 22.637999 # 1 
2840 1 2 0.589700 12.816000 33.285999 22.382000 # 2 
2841 1 2 0.589700 12.044000 33.759998 23.594999 # 2 
2842 1 1 -1.179400 18.045000 33.084000 12.030000 # 1 
2843 1 2 0.589700 18.073999 33.610001 12.829000 # 2 
2844 1 2 0.589700 18.844000 32.557999 12.059000 # 2 
2845 1 1 -1.179400 18.045000 25.481998 14.351000 # 1 
2846 1 2 0.589700 17.263000 25.755001 14.830000 # 2 
2847 1 2 0.589700 18.042999 26.021999 13.561000 # 2 
2848 1 1 -1.179400 18.045000 34.667999 14.351000 # 1 
2849 1 2 0.589700 17.259001 34.411999 14.834000 # 2 
2850 1 2 0.589700 18.031000 35.625000 14.358999 # 2 
2851 1 1 -1.179400 18.045000 25.481998 21.738998 # 1 
2852 1 2 0.589700 18.831001 25.738001 21.256001 # 2 
2853 1 2 0.589700 18.059000 24.525002 21.730001 # 2 
2854 1 1 -1.179400 18.045000 34.667999 21.738998 # 1 
2855 1 2 0.589700 18.047001 34.128002 22.528999 # 2 
2856 1 2 0.589700 18.827000 34.395000 21.259998 # 2 
2857 1 1 -1.179400 15.725000 28.653000 12.030000 # 1 
2858 1 2 0.589700 15.226001 28.381001 12.799999 # 2 
2859 1 2 0.589700 15.707001 29.609001 12.058001 # 2 
2860 1 1 -1.179400 14.349999 24.059999 19.466999 # 1 
2861 1 2 0.589700 14.849000 24.830000 19.739000 # 2 
2862 1 2 0.589700 14.368000 24.087999 18.511000 # 2 
2863 1 1 -1.179400 14.292999 27.773001 14.240000 # 1 
2864 1 2 0.589700 14.811000 27.184999 14.789000 # 2 
2865 1 2 0.589700 13.527000 27.256001 13.990999 # 2 
2866 1 1 -1.179400 14.292999 27.773001 21.849998 # 1 
2867 1 2 0.589700 14.751000 28.053999 22.643002 # 2 
2868 1 2 0.589700 13.525000 27.299999 22.172001 # 2 
2869 1 1 -1.179400 14.292999 32.376999 14.240000 # 1 
2870 1 2 0.589700 14.025001 31.591000 14.716001 # 2 
2871 1 2 0.589700 14.783000 32.046001 13.486000 # 2 
2872 1 1 -1.179400 14.292999 32.376999 21.849998 # 1 
2873 1 2 0.589700 14.837000 32.903999 21.264999 # 2 
2874 1 2 0.589700 14.033999 31.623001 21.322001 # 2 
2875 1 1 -1.179400 15.782000 26.270000 15.743000 # 1 
2876 1 2 0.589700 16.049000 26.746002 16.528999 # 2 
2877 1 2 0.589700 15.292000 25.515999 16.074001 # 2 
2878 1 1 -1.179400 15.782000 33.880001 15.743000 # 1 
2879 1 2 0.589700 16.041000 33.352001 16.497000 # 2 
2880 1 2 0.589700 15.238000 33.294998 15.216000 # 2 
2881 1 1 -1.179400 15.782000 26.270000 20.347002 # 1 
2882 1 2 0.589700 16.548000 26.021000 20.864000 # 2 
2883 1 2 0.589700 15.264000 26.819000 20.934999 # 2 
2884 1 1 -1.179400 15.782000 33.880001 20.347002 # 1 
2885 1 2 0.589700 16.549999 34.202000 20.820000 # 2 
2886 1 2 0.589700 15.324000 34.673000 20.066002 # 2 
2887 1 1 -1.179400 20.365000 28.653000 12.030000 # 1 
2888 1 2 0.589700 20.860001 28.351000 12.792000 # 2 
2889 1 2 0.589700 19.575001 28.113001 12.028000 # 2 
2890 1 1 -1.179400 21.740000 24.059999 19.466999 # 1 
2891 1 2 0.589700 21.245001 24.821999 19.768999 # 2 
2892 1 2 0.589700 22.530001 24.058001 20.007000 # 2 
2893 1 1 -1.179400 21.797001 27.773001 14.240000 # 1 
2894 1 2 0.589700 22.056000 28.527000 14.768000 # 2 
2895 1 2 0.589700 21.252998 27.246000 14.825000 # 2 
2896 1 1 -1.179400 21.797001 27.773001 21.849998 # 1 
2897 1 2 0.589700 21.307001 28.104000 22.604000 # 2 
2898 1 2 0.589700 22.065001 28.559000 21.373999 # 2 
2899 1 1 -1.179400 21.797001 32.376999 14.240000 # 1 
2900 1 2 0.589700 22.565001 32.850002 13.918000 # 2 
2901 1 2 0.589700 21.338999 32.096001 13.447000 # 2 
2902 1 1 -1.179400 21.797001 32.376999 21.849998 # 1 
2903 1 2 0.589700 22.563000 32.893997 22.099001 # 2 
2904 1 2 0.589700 21.278000 32.965000 21.301001 # 2 
2905 1 1 -1.179400 20.308001 26.270000 15.743000 # 1 
2906 1 2 0.589700 20.766001 25.476999 16.024000 # 2 
2907 1 2 0.589700 19.540001 25.948000 15.270000 # 2 
2908 1 1 -1.179400 20.308001 33.880001 15.743000 # 1 
2909 1 2 0.589700 19.542000 34.128998 15.226001 # 2 
2910 1 2 0.589700 20.827000 33.331001 15.155000 # 2 
2911 1 1 -1.179400 20.308001 26.270000 20.347002 # 1 
2912 1 2 0.589700 20.049000 26.798000 19.593000 # 2 
2913 1 2 0.589700 20.852001 26.855000 20.874001 # 2 
2914 1 1 -1.179400 20.308001 33.880001 20.347002 # 1 
2915 1 2 0.589700 20.797998 34.634003 20.016001 # 2 
2916 1 2 0.589700 20.041000 33.403999 19.561001 # 2 
2917 1 1 -1.179400 15.036000 30.074999 18.045000 # 1 
2918 1 2 0.589700 15.562000 30.874001 18.015999 # 2 
2919 1 2 0.589700 14.510000 30.104000 17.246000 # 2 
2920 1 1 -1.179400 21.054001 30.074999 18.045000 # 1 
2921 1 2 0.589700 21.580000 30.046001 18.844000 # 2 
2922 1 2 0.589700 20.528000 29.275999 18.073999 # 2 
2923 1 1 -1.179400 13.452001 30.074999 20.366001 # 1 
2924 1 2 0.589700 13.993999 30.070000 19.577000 # 2 
2925 1 2 0.589700 13.737000 29.305000 20.858000 # 2 
2926 1 1 -1.179400 22.637999 30.074999 20.366001 # 1 
2927 1 2 0.589700 22.376999 30.848999 20.865000 # 2 
2928 1 2 0.589700 23.594999 30.093000 20.376999 # 2 
2929 1 1 -1.179400 13.452001 30.074999 15.724000 # 1 
2930 1 2 0.589700 12.495001 30.057001 15.713000 # 2 
2931 1 2 0.589700 13.712999 29.300999 15.225000 # 2 
2932 1 1 -1.179400 22.637999 30.074999 15.724000 # 1 
2933 1 2 0.589700 22.096001 30.079998 16.513000 # 2 
2934 1 2 0.589700 22.353001 30.845001 15.232000 # 2 
2935 1 1 -1.179400 16.622999 27.755001 18.045000 # 1 
2936 1 2 0.589700 16.080000 28.542999 18.049999 # 2 
2937 1 2 0.589700 16.338001 27.263000 18.815001 # 2 
2938 1 1 -1.179400 19.466999 27.755001 18.045000 # 1 
2939 1 2 0.589700 18.510000 27.743000 18.027000 # 2 
2940 1 2 0.589700 19.728001 27.255001 17.271000 # 2 
2941 1 1 -1.179400 16.622999 32.395000 18.045000 # 1 
2942 1 2 0.589700 16.362000 32.895000 18.819000 # 2 
2943 1 2 0.589700 17.580000 32.407001 18.063000 # 2 
2944 1 1 -1.179400 19.466999 32.395000 18.045000 # 1 
2945 1 2 0.589700 20.009998 31.607000 18.040001 # 2 
2946 1 2 0.589700 19.752001 32.886997 17.275000 # 2 
2947 1 1 -1.179400 0.000000 48.119999 9.024000 # 1 
2948 1 2 0.589700 0.029000 47.320999 9.550000 # 2 
2949 1 2 0.589700 0.799000 48.091003 8.498000 # 2 
2950 1 1 -1.179400 2.320000 48.119999 4.593000 # 1 
2951 1 2 0.589700 1.530000 48.122002 4.053000 # 2 
2952 1 2 0.589700 2.815000 47.357998 4.291000 # 2 
2953 1 1 -1.179400 9.710000 48.119999 4.593000 # 1 
2954 1 2 0.589700 9.211000 47.350002 4.321000 # 2 
2955 1 2 0.589700 9.692000 48.091999 5.549000 # 2 
2956 1 1 -1.179400 6.015000 39.096001 12.030000 # 1 
2957 1 2 0.589700 5.986000 38.570000 11.231001 # 2 
2958 1 2 0.589700 5.216000 39.621998 12.000999 # 2 
2959 1 1 -1.179400 3.695000 43.526997 12.030000 # 1 
2960 1 2 0.589700 4.485000 44.067001 12.032000 # 2 
2961 1 2 0.589700 3.200000 43.828999 11.268000 # 2 
2962 1 1 -1.179400 8.335000 43.526997 12.030000 # 1 
2963 1 2 0.589700 8.834000 43.799000 11.260000 # 2 
2964 1 2 0.589700 8.353000 42.570999 12.002000 # 2 
2965 1 1 -1.179400 0.000000 36.090000 21.054001 # 1 
2966 1 2 0.589700 0.029000 35.291000 21.580000 # 2 
2967 1 2 0.589700 0.799000 36.061001 20.528000 # 2 
2968 1 1 -1.179400 2.320000 36.090000 16.622999 # 1 
2969 1 2 0.589700 1.530000 36.091999 16.083000 # 2 
2970 1 2 0.589700 2.815000 35.327999 16.320999 # 2 
2971 1 1 -1.179400 9.710000 36.090000 16.622999 # 1 
2972 1 2 0.589700 9.211000 35.320000 16.351000 # 2 
2973 1 2 0.589700 9.692000 36.062000 17.579000 # 2 
2974 1 1 -1.179400 0.000000 45.798996 13.452001 # 1 
2975 1 2 0.589700 0.782000 45.320000 13.725000 # 2 
2976 1 2 0.589700 0.002000 46.588997 13.992000 # 2 
2977 1 1 -1.179400 0.000000 45.798996 22.637999 # 1 
2978 1 2 0.589700 0.786000 45.316002 22.382000 # 2 
2979 1 2 0.589700 0.014000 45.790001 23.594999 # 2 
2980 1 1 -1.179400 6.015000 45.114002 12.030000 # 1 
2981 1 2 0.589700 6.044001 45.639999 12.829000 # 2 
2982 1 2 0.589700 6.814000 44.587997 12.059000 # 2 
2983 1 1 -1.179400 6.015000 37.512001 14.351000 # 1 
2984 1 2 0.589700 5.233000 37.785000 14.830000 # 2 
2985 1 2 0.589700 6.013000 38.052002 13.561000 # 2 
2986 1 1 -1.179400 6.015000 46.697998 14.351000 # 1 
2987 1 2 0.589700 5.229000 46.441998 14.834000 # 2 
2988 1 2 0.589700 6.001000 47.654999 14.358999 # 2 
2989 1 1 -1.179400 6.015000 37.512001 21.738998 # 1 
2990 1 2 0.589700 6.801000 37.767998 21.256001 # 2 
2991 1 2 0.589700 6.029000 36.555000 21.730001 # 2 
2992 1 1 -1.179400 6.015000 46.697998 21.738998 # 1 
2993 1 2 0.589700 6.017000 46.157997 22.528999 # 2 
2994 1 2 0.589700 6.797000 46.424999 21.259998 # 2 
2995 1 1 -1.179400 3.695000 40.682999 12.030000 # 1 
2996 1 2 0.589700 3.196000 40.410999 12.799999 # 2 
2997 1 2 0.589700 3.677000 41.639000 12.058001 # 2 
2998 1 1 -1.179400 2.320000 36.090000 19.466999 # 1 
2999 1 2 0.589700 2.819000 36.860001 19.739000 # 2 
3000 1 2 0.589700 2.338000 36.118000 18.511000 # 2 
3001 1 1 -1.179400 2.263000 39.803001 14.240000 # 1 
3002 1 2 0.589700 2.781000 39.215000 14.789000 # 2 
3003 1 2 0.589700 1.497000 39.285999 13.990999 # 2 
3004 1 1 -1.179400 2.263000 39.803001 21.849998 # 1 
3005 1 2 0.589700 2.721000 40.084000 22.643002 # 2 
3006 1 2 0.589700 1.495000 39.330002 22.172001 # 2 
3007 1 1 -1.179400 2.263000 44.407001 14.240000 # 1 
3008 1 2 0.589700 1.995000 43.621002 14.716001 # 2 
3009 1 2 0.589700 2.753000 44.076000 13.486000 # 2 
3010 1 1 -1.179400 2.263000 44.407001 21.849998 # 1 
3011 1 2 0.589700 2.807000 44.934002 21.264999 # 2 
3012 1 2 0.589700 2.004000 43.653000 21.322001 # 2 
3013 1 1 -1.179400 3.752000 38.299999 15.743000 # 1 
3014 1 2 0.589700 4.019000 38.776001 16.528999 # 2 
3015 1 2 0.589700 3.262000 37.546001 16.074001 # 2 
3016 1 1 -1.179400 3.752000 45.910000 15.743000 # 1 
3017 1 2 0.589700 4.011000 45.382000 16.497000 # 2 
3018 1 2 0.589700 3.208000 45.324997 15.216000 # 2 
3019 1 1 -1.179400 3.752000 38.299999 20.347002 # 1 
3020 1 2 0.589700 4.518000 38.050999 20.864000 # 2 
3021 1 2 0.589700 3.234000 38.848999 20.934999 # 2 
3022 1 1 -1.179400 3.752000 45.910000 20.347002 # 1 
3023 1 2 0.589700 4.520000 46.231998 20.820000 # 2 
3024 1 2 0.589700 3.294000 46.702999 20.066002 # 2 
3025 1 1 -1.179400 8.335000 40.682999 12.030000 # 1 
3026 1 2 0.589700 8.830000 40.380997 12.792000 # 2 
3027 1 2 0.589700 7.545000 40.142998 12.028000 # 2 
3028 1 1 -1.179400 9.710000 36.090000 19.466999 # 1 
3029 1 2 0.589700 9.215000 36.852001 19.768999 # 2 
3030 1 2 0.589700 10.500000 36.087997 20.007000 # 2 
3031 1 1 -1.179400 9.767000 39.803001 14.240000 # 1 
3032 1 2 0.589700 10.025999 40.556999 14.768000 # 2 
3033 1 2 0.589700 9.223000 39.276001 14.825000 # 2 
3034 1 1 -1.179400 9.767000 39.803001 21.849998 # 1 
3035 1 2 0.589700 9.277000 40.134003 22.604000 # 2 
3036 1 2 0.589700 10.035000 40.588997 21.373999 # 2 
3037 1 1 -1.179400 9.767000 44.407001 14.240000 # 1 
3038 1 2 0.589700 10.535000 44.879997 13.918000 # 2 
3039 1 2 0.589700 9.309000 44.125999 13.447000 # 2 
3040 1 1 -1.179400 9.767000 44.407001 21.849998 # 1 
3041 1 2 0.589700 10.533000 44.924004 22.099001 # 2 
3042 1 2 0.589700 9.248000 44.994999 21.301001 # 2 
3043 1 1 -1.179400 8.278000 38.299999 15.743000 # 1 
3044 1 2 0.589700 8.736000 37.507000 16.024000 # 2 
3045 1 2 0.589700 7.510000 37.978001 15.270000 # 2 
3046 1 1 -1.179400 8.278000 45.910000 15.743000 # 1 
3047 1 2 0.589700 7.512000 46.159000 15.226001 # 2 
3048 1 2 0.589700 8.797000 45.361000 15.155000 # 2 
3049 1 1 -1.179400 8.278000 38.299999 20.347002 # 1 
3050 1 2 0.589700 8.019000 38.828003 19.593000 # 2 
3051 1 2 0.589700 8.822000 38.884998 20.874001 # 2 
3052 1 1 -1.179400 8.278000 45.910000 20.347002 # 1 
3053 1 2 0.589700 8.768000 46.664001 20.016001 # 2 
3054 1 2 0.589700 8.011000 45.433998 19.561001 # 2 
3055 1 1 -1.179400 3.006000 42.104996 18.045000 # 1 
3056 1 2 0.589700 3.532000 42.903999 18.015999 # 2 
3057 1 2 0.589700 2.480000 42.133999 17.246000 # 2 
3058 1 1 -1.179400 9.024000 42.104996 18.045000 # 1 
3059 1 2 0.589700 9.550000 42.076000 18.844000 # 2 
3060 1 2 0.589700 8.498000 41.306000 18.073999 # 2 
3061 1 1 -1.179400 1.422000 42.104996 20.366001 # 1 
3062 1 2 0.589700 1.964000 42.099998 19.577000 # 2 
3063 1 2 0.589700 1.707000 41.334999 20.858000 # 2 
3064 1 1 -1.179400 10.608000 42.104996 20.366001 # 1 
3065 1 2 0.589700 10.347000 42.878998 20.865000 # 2 
3066 1 2 0.589700 11.565000 42.122997 20.376999 # 2 
3067 1 1 -1.179400 1.422000 42.104996 15.724000 # 1 
3068 1 2 0.589700 0.465000 42.087002 15.713000 # 2 
3069 1 2 0.589700 1.683000 41.331001 15.225000 # 2 
3070 1 1 -1.179400 10.608000 42.104996 15.724000 # 1 
3071 1 2 0.589700 10.066000 42.110001 16.513000 # 2 
3072 1 2 0.589700 10.323000 42.875000 15.232000 # 2 
3073 1 1 -1.179400 4.593000 39.785000 18.045000 # 1 
3074 1 2 0.589700 4.050000 40.573002 18.049999 # 2 
3075 1 2 0.589700 4.308000 39.292999 18.815001 # 2 
3076 1 1 -1.179400 7.437000 39.785000 18.045000 # 1 
3077 1 2 0.589700 6.480000 39.772999 18.027000 # 2 
3078 1 2 0.589700 7.698000 39.285000 17.271000 # 2 
3079 1 1 -1.179400 4.593000 44.425003 18.045000 # 1 
3080 1 2 0.589700 4.332000 44.924999 18.819000 # 2 
3081 1 2 0.589700 5.550000 44.436996 18.063000 # 2 
3082 1 1 -1.179400 7.437000 44.425003 18.045000 # 1 
3083 1 2 0.589700 7.980000 43.637001 18.040001 # 2 
3084 1 2 0.589700 7.722000 44.917000 17.275000 # 2 
3085 1 1 -1.179400 24.059999 36.090000 3.006000 # 1 
3086 1 2 0.589700 23.261002 36.118999 3.532000 # 2 
3087 1 2 0.589700 24.031000 36.889000 2.480000 # 2 
3088 1 1 -1.179400 24.059999 38.410999 1.422000 # 1 
3089 1 2 0.589700 23.274000 38.894001 1.678000 # 2 
3090 1 2 0.589700 24.046000 38.419003 0.465000 # 2 
3091 1 1 -1.179400 24.059999 38.410999 10.608000 # 1 
3092 1 2 0.589700 23.278000 38.889999 10.334999 # 2 
3093 1 2 0.589700 24.058001 37.620998 10.067999 # 2 
3094 1 1 -1.179400 12.030000 48.119999 9.024000 # 1 
3095 1 2 0.589700 12.059000 47.320999 9.550000 # 2 
3096 1 2 0.589700 12.829000 48.091003 8.498000 # 2 
3097 1 1 -1.179400 14.349999 48.119999 4.593000 # 1 
3098 1 2 0.589700 13.559999 48.122002 4.053000 # 2 
3099 1 2 0.589700 14.845000 47.357998 4.291000 # 2 
3100 1 1 -1.179400 21.740000 48.119999 4.593000 # 1 
3101 1 2 0.589700 21.240999 47.350002 4.321000 # 2 
3102 1 2 0.589700 21.722000 48.091999 5.549000 # 2 
3103 1 1 -1.179400 18.045000 39.096001 12.030000 # 1 
3104 1 2 0.589700 18.015999 38.570000 11.231001 # 2 
3105 1 2 0.589700 17.246000 39.621998 12.000999 # 2 
3106 1 1 -1.179400 15.725000 43.526997 12.030000 # 1 
3107 1 2 0.589700 16.514999 44.067001 12.032000 # 2 
3108 1 2 0.589700 15.230000 43.828999 11.268000 # 2 
3109 1 1 -1.179400 20.365000 43.526997 12.030000 # 1 
3110 1 2 0.589700 20.864000 43.799000 11.260000 # 2 
3111 1 2 0.589700 20.382999 42.570999 12.002000 # 2 
3112 1 1 -1.179400 12.030000 36.090000 21.054001 # 1 
3113 1 2 0.589700 12.059000 35.291000 21.580000 # 2 
3114 1 2 0.589700 12.829000 36.061001 20.528000 # 2 
3115 1 1 -1.179400 14.349999 36.090000 16.622999 # 1 
3116 1 2 0.589700 13.559999 36.091999 16.083000 # 2 
3117 1 2 0.589700 14.845000 35.327999 16.320999 # 2 
3118 1 1 -1.179400 21.740000 36.090000 16.622999 # 1 
3119 1 2 0.589700 21.240999 35.320000 16.351000 # 2 
3120 1 2 0.589700 21.722000 36.062000 17.579000 # 2 
3121 1 1 -1.179400 12.030000 36.090000 15.036000 # 1 
3122 1 2 0.589700 11.231001 36.118999 15.562000 # 2 
3123 1 2 0.589700 12.000999 36.889000 14.510000 # 2 
3124 1 1 -1.179400 12.030000 38.410999 13.452001 # 1 
3125 1 2 0.589700 11.244000 38.894001 13.708000 # 2 
3126 1 2 0.589700 12.016000 38.419003 12.495001 # 2 
3127 1 1 -1.179400 12.030000 38.410999 22.637999 # 1 
3128 1 2 0.589700 11.247999 38.889999 22.365000 # 2 
3129 1 2 0.589700 12.028000 37.620998 22.098000 # 2 
3130 1 1 -1.179400 12.030000 45.798996 13.452001 # 1 
3131 1 2 0.589700 12.812000 45.320000 13.725000 # 2 
3132 1 2 0.589700 12.032000 46.588997 13.992000 # 2 
3133 1 1 -1.179400 12.030000 45.798996 22.637999 # 1 
3134 1 2 0.589700 12.816000 45.316002 22.382000 # 2 
3135 1 2 0.589700 12.044000 45.790001 23.594999 # 2 
3136 1 1 -1.179400 18.045000 45.114002 12.030000 # 1 
3137 1 2 0.589700 18.073999 45.639999 12.829000 # 2 
3138 1 2 0.589700 18.844000 44.587997 12.059000 # 2 
3139 1 1 -1.179400 18.045000 37.512001 14.351000 # 1 
3140 1 2 0.589700 17.263000 37.785000 14.830000 # 2 
3141 1 2 0.589700 18.042999 38.052002 13.561000 # 2 
3142 1 1 -1.179400 18.045000 46.697998 14.351000 # 1 
3143 1 2 0.589700 17.259001 46.441998 14.834000 # 2 
3144 1 2 0.589700 18.031000 47.654999 14.358999 # 2 
3145 1 1 -1.179400 18.045000 37.512001 21.738998 # 1 
3146 1 2 0.589700 18.831001 37.767998 21.256001 # 2 
3147 1 2 0.589700 18.059000 36.555000 21.730001 # 2 
3148 1 1 -1.179400 18.045000 46.697998 21.738998 # 1 
3149 1 2 0.589700 18.047001 46.157997 22.528999 # 2 
3150 1 2 0.589700 18.827000 46.424999 21.259998 # 2 
3151 1 1 -1.179400 15.725000 40.682999 12.030000 # 1 
3152 1 2 0.589700 15.226001 40.410999 12.799999 # 2 
3153 1 2 0.589700 15.707001 41.639000 12.058001 # 2 
3154 1 1 -1.179400 14.349999 36.090000 19.466999 # 1 
3155 1 2 0.589700 14.849000 36.860001 19.739000 # 2 
3156 1 2 0.589700 14.368000 36.118000 18.511000 # 2 
3157 1 1 -1.179400 14.292999 39.803001 14.240000 # 1 
3158 1 2 0.589700 14.811000 39.215000 14.789000 # 2 
3159 1 2 0.589700 13.527000 39.285999 13.990999 # 2 
3160 1 1 -1.179400 14.292999 39.803001 21.849998 # 1 
3161 1 2 0.589700 14.751000 40.084000 22.643002 # 2 
3162 1 2 0.589700 13.525000 39.330002 22.172001 # 2 
3163 1 1 -1.179400 14.292999 44.407001 14.240000 # 1 
3164 1 2 0.589700 14.025001 43.621002 14.716001 # 2 
3165 1 2 0.589700 14.783000 44.076000 13.486000 # 2 
3166 1 1 -1.179400 14.292999 44.407001 21.849998 # 1 
3167 1 2 0.589700 14.837000 44.934002 21.264999 # 2 
3168 1 2 0.589700 14.033999 43.653000 21.322001 # 2 
3169 1 1 -1.179400 15.782000 38.299999 15.743000 # 1 
3170 1 2 0.589700 16.049000 38.776001 16.528999 # 2 
3171 1 2 0.589700 15.292000 37.546001 16.074001 # 2 
3172 1 1 -1.179400 15.782000 45.910000 15.743000 # 1 
3173 1 2 0.589700 16.041000 45.382000 16.497000 # 2 
3174 1 2 0.589700 15.238000 45.324997 15.216000 # 2 
3175 1 1 -1.179400 15.782000 38.299999 20.347002 # 1 
3176 1 2 0.589700 16.548000 38.050999 20.864000 # 2 
3177 1 2 0.589700 15.264000 38.848999 20.934999 # 2 
3178 1 1 -1.179400 15.782000 45.910000 20.347002 # 1 
3179 1 2 0.589700 16.549999 46.231998 20.820000 # 2 
3180 1 2 0.589700 15.324000 46.702999 20.066002 # 2 
3181 1 1 -1.179400 20.365000 40.682999 12.030000 # 1 
3182 1 2 0.589700 20.860001 40.380997 12.792000 # 2 
3183 1 2 0.589700 19.575001 40.142998 12.028000 # 2 
3184 1 1 -1.179400 21.740000 36.090000 19.466999 # 1 
3185 1 2 0.589700 21.245001 36.852001 19.768999 # 2 
3186 1 2 0.589700 22.530001 36.087997 20.007000 # 2 
3187 1 1 -1.179400 21.797001 39.803001 14.240000 # 1 
3188 1 2 0.589700 22.056000 40.556999 14.768000 # 2 
3189 1 2 0.589700 21.252998 39.276001 14.825000 # 2 
3190 1 1 -1.179400 21.797001 39.803001 21.849998 # 1 
3191 1 2 0.589700 21.307001 40.134003 22.604000 # 2 
3192 1 2 0.589700 22.065001 40.588997 21.373999 # 2 
3193 1 1 -1.179400 21.797001 44.407001 14.240000 # 1 
3194 1 2 0.589700 22.565001 44.879997 13.918000 # 2 
3195 1 2 0.589700 21.338999 44.125999 13.447000 # 2 
3196 1 1 -1.179400 21.797001 44.407001 21.849998 # 1 
3197 1 2 0.589700 22.563000 44.924004 22.099001 # 2 
3198 1 2 0.589700 21.278000 44.994999 21.301001 # 2 
3199 1 1 -1.179400 20.308001 38.299999 15.743000 # 1 
3200 1 2 0.589700 20.766001 37.507000 16.024000 # 2 
3201 1 2 0.589700 19.540001 37.978001 15.270000 # 2 
3202 1 1 -1.179400 20.308001 45.910000 15.743000 # 1 
3203 1 2 0.589700 19.542000 46.159000 15.226001 # 2 
3204 1 2 0.589700 20.827000 45.361000 15.155000 # 2 
3205 1 1 -1.179400 20.308001 38.299999 20.347002 # 1 
3206 1 2 0.589700 20.049000 38.828003 19.593000 # 2 
3207 1 2 0.589700 20.852001 38.884998 20.874001 # 2 
3208 1 1 -1.179400 20.308001 45.910000 20.347002 # 1 
3209 1 2 0.589700 20.797998 46.664001 20.016001 # 2 
3210 1 2 0.589700 20.041000 45.433998 19.561001 # 2 
3211 1 1 -1.179400 15.036000 42.104996 18.045000 # 1 
3212 1 2 0.589700 15.562000 42.903999 18.015999 # 2 
3213 1 2 0.589700 14.510000 42.133999 17.246000 # 2 
3214 1 1 -1.179400 21.054001 42.104996 18.045000 # 1 
3215 1 2 0.589700 21.580000 42.076000 18.844000 # 2 
3216 1 2 0.589700 20.528000 41.306000 18.073999 # 2 
3217 1 1 -1.179400 13.452001 42.104996 20.366001 # 1 
3218 1 2 0.589700 13.993999 42.099998 19.577000 # 2 
3219 1 2 0.589700 13.737000 41.334999 20.858000 # 2 
3220 1 1 -1.179400 22.637999 42.104996 20.366001 # 1 
3221 1 2 0.589700 22.376999 42.878998 20.865000 # 2 
3222 1 2 0.589700 23.594999 42.122997 20.376999 # 2 
3223 1 1 -1.179400 13.452001 42.104996 15.724000 # 1 
3224 1 2 0.589700 12.495001 42.087002 15.713000 # 2 
3225 1 2 0.589700 13.712999 41.331001 15.225000 # 2 
3226 1 1 -1.179400 22.637999 42.104996 15.724000 # 1 
3227 1 2 0.589700 22.096001 42.110001 16.513000 # 2 
3228 1 2 0.589700 22.353001 42.875000 15.232000 # 2 
3229 1 1 -1.179400 16.622999 39.785000 18.045000 # 1 
3230 1 2 0.589700 16.080000 40.573002 18.049999 # 2 
3231 1 2 0.589700 16.338001 39.292999 18.815001 # 2 
3232 1 1 -1.179400 19.466999 39.785000 18.045000 # 1 
3233 1 2 0.589700 18.510000 39.772999 18.027000 # 2 
3234 1 2 0.589700 19.728001 39.285000 17.271000 # 2 
3235 1 1 -1.179400 16.622999 44.425003 18.045000 # 1 
3236 1 2 0.589700 16.362000 44.924999 18.819000 # 2 
3237 1 2 0.589700 17.580000 44.436996 18.063000 # 2 
3238 1 1 -1.179400 19.466999 44.425003 18.045000 # 1 
3239 1 2 0.589700 20.009998 43.637001 18.040001 # 2 
3240 1 2 0.589700 19.752001 44.917000 17.275000 # 2 
3241 1 1 -1.179400 6.015000 27.066000 24.059999 # 1 
3242 1 2 0.589700 5.986000 26.540001 23.261002 # 2 
3243 1 2 0.589700 5.216000 27.592001 24.031000 # 2 
3244 1 1 -1.179400 3.695000 31.497000 24.059999 # 1 
3245 1 2 0.589700 4.485000 32.037003 24.062000 # 2 
3246 1 2 0.589700 3.200000 31.799000 23.297998 # 2 
3247 1 1 -1.179400 8.335000 31.497000 24.059999 # 1 
3248 1 2 0.589700 8.834000 31.768999 23.290001 # 2 
3249 1 2 0.589700 8.353000 30.541000 24.032000 # 2 
3250 1 1 -1.179400 24.059999 24.059999 15.036000 # 1 
3251 1 2 0.589700 23.261002 24.089001 15.562000 # 2 
3252 1 2 0.589700 24.031000 24.858999 14.510000 # 2 
3253 1 1 -1.179400 24.059999 26.380999 13.452001 # 1 
3254 1 2 0.589700 23.274000 26.863998 13.708000 # 2 
3255 1 2 0.589700 24.046000 26.389000 12.495001 # 2 
3256 1 1 -1.179400 24.059999 26.380999 22.637999 # 1 
3257 1 2 0.589700 23.278000 26.860001 22.365000 # 2 
3258 1 2 0.589700 24.058001 25.591000 22.098000 # 2 
3259 1 1 -1.179400 18.045000 27.066000 24.059999 # 1 
3260 1 2 0.589700 18.015999 26.540001 23.261002 # 2 
3261 1 2 0.589700 17.246000 27.592001 24.031000 # 2 
3262 1 1 -1.179400 15.725000 31.497000 24.059999 # 1 
3263 1 2 0.589700 16.514999 32.037003 24.062000 # 2 
3264 1 2 0.589700 15.230000 31.799000 23.297998 # 2 
3265 1 1 -1.179400 20.365000 31.497000 24.059999 # 1 
3266 1 2 0.589700 20.864000 31.768999 23.290001 # 2 
3267 1 2 0.589700 20.382999 30.541000 24.032000 # 2 
3268 1 1 -1.179400 0.000000 48.119999 21.054001 # 1 
3269 1 2 0.589700 0.029000 47.320999 21.580000 # 2 
3270 1 2 0.589700 0.799000 48.091003 20.528000 # 2 
3271 1 1 -1.179400 2.320000 48.119999 16.622999 # 1 
3272 1 2 0.589700 1.530000 48.122002 16.083000 # 2 
3273 1 2 0.589700 2.815000 47.357998 16.320999 # 2 
3274 1 1 -1.179400 9.710000 48.119999 16.622999 # 1 
3275 1 2 0.589700 9.211000 47.350002 16.351000 # 2 
3276 1 2 0.589700 9.692000 48.091999 17.579000 # 2 
3277 1 1 -1.179400 6.015000 39.096001 24.059999 # 1 
3278 1 2 0.589700 5.986000 38.570000 23.261002 # 2 
3279 1 2 0.589700 5.216000 39.621998 24.031000 # 2 
3280 1 1 -1.179400 3.695000 43.526997 24.059999 # 1 
3281 1 2 0.589700 4.485000 44.067001 24.062000 # 2 
3282 1 2 0.589700 3.200000 43.828999 23.297998 # 2 
3283 1 1 -1.179400 8.335000 43.526997 24.059999 # 1 
3284 1 2 0.589700 8.834000 43.799000 23.290001 # 2 
3285 1 2 0.589700 8.353000 42.570999 24.032000 # 2 
3286 1 1 -1.179400 24.059999 36.090000 15.036000 # 1 
3287 1 2 0.589700 23.261002 36.118999 15.562000 # 2 
3288 1 2 0.589700 24.031000 36.889000 14.510000 # 2 
3289 1 1 -1.179400 24.059999 38.410999 13.452001 # 1 
3290 1 2 0.589700 23.274000 38.894001 13.708000 # 2 
3291 1 2 0.589700 24.046000 38.419003 12.495001 # 2 
3292 1 1 -1.179400 24.059999 38.410999 22.637999 # 1 
3293 1 2 0.589700 23.278000 38.889999 22.365000 # 2 
3294 1 2 0.589700 24.058001 37.620998 22.098000 # 2 
3295 1 1 -1.179400 12.030000 48.119999 21.054001 # 1 
3296 1 2 0.589700 12.059000 47.320999 21.580000 # 2 
3297 1 2 0.589700 12.829000 48.091003 20.528000 # 2 
3298 1 1 -1.179400 14.349999 48.119999 16.622999 # 1 
3299 1 2 0.589700 13.559999 48.122002 16.083000 # 2 
3300 1 2 0.589700 14.845000 47.357998 16.320999 # 2 
3301 1 1 -1.179400 21.740000 48.119999 16.622999 # 1 
3302 1 2 0.589700 21.240999 47.350002 16.351000 # 2 
3303 1 2 0.589700 21.722000 48.091999 17.579000 # 2 
3304 1 1 -1.179400 18.045000 39.096001 24.059999 # 1 
3305 1 2 0.589700 18.015999 38.570000 23.261002 # 2 
3306 1 2 0.589700 17.246000 39.621998 24.031000 # 2 
3307 1 1 -1.179400 15.725000 43.526997 24.059999 # 1 
3308 1 2 0.589700 16.514999 44.067001 24.062000 # 2 
3309 1 2 0.589700 15.230000 43.828999 23.297998 # 2 
3310 1 1 -1.179400 20.365000 43.526997 24.059999 # 1 
3311 1 2 0.589700 20.864000 43.799000 23.290001 # 2 
3312 1 2 0.589700 20.382999 42.570999 24.032000 # 2 
3313 1 1 -1.179400 36.090000 24.059999 3.006000 # 1 
3314 1 2 0.589700 35.291000 24.089001 3.532000 # 2 
3315 1 2 0.589700 36.061001 24.858999 2.480000 # 2 
3316 1 1 -1.179400 36.090000 26.380999 1.422000 # 1 
3317 1 2 0.589700 35.304001 26.863998 1.678000 # 2 
3318 1 2 0.589700 36.076000 26.389000 0.465000 # 2 
3319 1 1 -1.179400 36.090000 26.380999 10.608000 # 1 
3320 1 2 0.589700 35.308002 26.860001 10.334999 # 2 
3321 1 2 0.589700 36.087997 25.591000 10.067999 # 2 
3322 1 1 -1.179400 36.090000 33.769001 1.422000 # 1 
3323 1 2 0.589700 36.872002 33.290001 1.695000 # 2 
3324 1 2 0.589700 36.091999 34.558998 1.962000 # 2 
3325 1 1 -1.179400 36.090000 33.769001 10.608000 # 1 
3326 1 2 0.589700 36.875999 33.285999 10.352000 # 2 
3327 1 2 0.589700 36.104000 33.759998 11.565000 # 2 
3328 1 1 -1.179400 42.104996 33.084000 0.000000 # 1 
3329 1 2 0.589700 42.133999 33.610001 0.799000 # 2 
3330 1 2 0.589700 42.903999 32.557999 0.029000 # 2 
3331 1 1 -1.179400 42.104996 25.481998 2.321000 # 1 
3332 1 2 0.589700 41.322998 25.755001 2.800000 # 2 
3333 1 2 0.589700 42.103001 26.021999 1.531000 # 2 
3334 1 1 -1.179400 42.104996 34.667999 2.321000 # 1 
3335 1 2 0.589700 41.319000 34.411999 2.804000 # 2 
3336 1 2 0.589700 42.090996 35.625000 2.329000 # 2 
3337 1 1 -1.179400 42.104996 25.481998 9.709000 # 1 
3338 1 2 0.589700 42.891003 25.738001 9.226000 # 2 
3339 1 2 0.589700 42.118996 24.525002 9.700000 # 2 
3340 1 1 -1.179400 42.104996 34.667999 9.709000 # 1 
3341 1 2 0.589700 42.107002 34.128002 10.499000 # 2 
3342 1 2 0.589700 42.887001 34.395000 9.230000 # 2 
3343 1 1 -1.179400 39.785000 28.653000 0.000000 # 1 
3344 1 2 0.589700 39.285999 28.381001 0.770000 # 2 
3345 1 2 0.589700 39.767002 29.609001 0.028000 # 2 
3346 1 1 -1.179400 38.410000 24.059999 7.437000 # 1 
3347 1 2 0.589700 38.909000 24.830000 7.709000 # 2 
3348 1 2 0.589700 38.427998 24.087999 6.481000 # 2 
3349 1 1 -1.179400 38.353001 27.773001 2.210000 # 1 
3350 1 2 0.589700 38.870998 27.184999 2.759000 # 2 
3351 1 2 0.589700 37.586998 27.256001 1.961000 # 2 
3352 1 1 -1.179400 38.353001 27.773001 9.820000 # 1 
3353 1 2 0.589700 38.811001 28.053999 10.613001 # 2 
3354 1 2 0.589700 37.584999 27.299999 10.142000 # 2 
3355 1 1 -1.179400 38.353001 32.376999 2.210000 # 1 
3356 1 2 0.589700 38.084999 31.591000 2.686000 # 2 
3357 1 2 0.589700 38.842999 32.046001 1.456000 # 2 
3358 1 1 -1.179400 38.353001 32.376999 9.820000 # 1 
3359 1 2 0.589700 38.896999 32.903999 9.235000 # 2 
3360 1 2 0.589700 38.094002 31.623001 9.292000 # 2 
3361 1 1 -1.179400 39.841999 26.270000 3.713000 # 1 
3362 1 2 0.589700 40.109001 26.746002 4.499000 # 2 
3363 1 2 0.589700 39.352001 25.515999 4.044000 # 2 
3364 1 1 -1.179400 39.841999 33.880001 3.713000 # 1 
3365 1 2 0.589700 40.100998 33.352001 4.467000 # 2 
3366 1 2 0.589700 39.298000 33.294998 3.186000 # 2 
3367 1 1 -1.179400 39.841999 26.270000 8.317000 # 1 
3368 1 2 0.589700 40.608002 26.021000 8.834000 # 2 
3369 1 2 0.589700 39.324001 26.819000 8.905000 # 2 
3370 1 1 -1.179400 39.841999 33.880001 8.317000 # 1 
3371 1 2 0.589700 40.610001 34.202000 8.790000 # 2 
3372 1 2 0.589700 39.383999 34.673000 8.036000 # 2 
3373 1 1 -1.179400 44.425003 28.653000 0.000000 # 1 
3374 1 2 0.589700 44.920002 28.351000 0.762000 # 2 
3375 1 2 0.589700 43.635002 28.113001 -0.002000 # 2 
3376 1 1 -1.179400 45.799999 24.059999 7.437000 # 1 
3377 1 2 0.589700 45.305000 24.821999 7.739000 # 2 
3378 1 2 0.589700 46.590000 24.058001 7.977000 # 2 
3379 1 1 -1.179400 45.857002 27.773001 2.210000 # 1 
3380 1 2 0.589700 46.115997 28.527000 2.738000 # 2 
3381 1 2 0.589700 45.313000 27.246000 2.795000 # 2 
3382 1 1 -1.179400 45.857002 27.773001 9.820000 # 1 
3383 1 2 0.589700 45.367004 28.104000 10.573999 # 2 
3384 1 2 0.589700 46.125000 28.559000 9.344000 # 2 
3385 1 1 -1.179400 45.857002 32.376999 2.210000 # 1 
3386 1 2 0.589700 46.625000 32.850002 1.888000 # 2 
3387 1 2 0.589700 45.398998 32.096001 1.417000 # 2 
3388 1 1 -1.179400 45.857002 32.376999 9.820000 # 1 
3389 1 2 0.589700 46.623001 32.893997 10.069000 # 2 
3390 1 2 0.589700 45.338001 32.965000 9.271000 # 2 
3391 1 1 -1.179400 44.368000 26.270000 3.713000 # 1 
3392 1 2 0.589700 44.826004 25.476999 3.994000 # 2 
3393 1 2 0.589700 43.600002 25.948000 3.240000 # 2 
3394 1 1 -1.179400 44.368000 33.880001 3.713000 # 1 
3395 1 2 0.589700 43.601997 34.128998 3.196000 # 2 
3396 1 2 0.589700 44.887001 33.331001 3.125000 # 2 
3397 1 1 -1.179400 44.368000 26.270000 8.317000 # 1 
3398 1 2 0.589700 44.109001 26.798000 7.563000 # 2 
3399 1 2 0.589700 44.911999 26.855000 8.844000 # 2 
3400 1 1 -1.179400 44.368000 33.880001 8.317000 # 1 
3401 1 2 0.589700 44.857998 34.634003 7.986000 # 2 
3402 1 2 0.589700 44.100998 33.403999 7.531000 # 2 
3403 1 1 -1.179400 39.096001 30.074999 6.015000 # 1 
3404 1 2 0.589700 39.621998 30.874001 5.986000 # 2 
3405 1 2 0.589700 38.570000 30.104000 5.216000 # 2 
3406 1 1 -1.179400 45.114002 30.074999 6.015000 # 1 
3407 1 2 0.589700 45.639999 30.046001 6.814000 # 2 
3408 1 2 0.589700 44.587997 29.275999 6.044001 # 2 
3409 1 1 -1.179400 37.512001 30.074999 8.336000 # 1 
3410 1 2 0.589700 38.054001 30.070000 7.547000 # 2 
3411 1 2 0.589700 37.797001 29.305000 8.828000 # 2 
3412 1 1 -1.179400 46.697998 30.074999 8.336000 # 1 
3413 1 2 0.589700 46.437000 30.848999 8.835000 # 2 
3414 1 2 0.589700 47.654999 30.093000 8.347000 # 2 
3415 1 1 -1.179400 37.512001 30.074999 3.694000 # 1 
3416 1 2 0.589700 36.555000 30.057001 3.683000 # 2 
3417 1 2 0.589700 37.772999 29.300999 3.195000 # 2 
3418 1 1 -1.179400 46.697998 30.074999 3.694000 # 1 
3419 1 2 0.589700 46.156002 30.079998 4.483000 # 2 
3420 1 2 0.589700 46.413002 30.845001 3.202000 # 2 
3421 1 1 -1.179400 40.682999 27.755001 6.015000 # 1 
3422 1 2 0.589700 40.139999 28.542999 6.020000 # 2 
3423 1 2 0.589700 40.398003 27.263000 6.785000 # 2 
3424 1 1 -1.179400 43.526997 27.755001 6.015000 # 1 
3425 1 2 0.589700 42.570000 27.743000 5.997000 # 2 
3426 1 2 0.589700 43.787998 27.255001 5.241000 # 2 
3427 1 1 -1.179400 40.682999 32.395000 6.015000 # 1 
3428 1 2 0.589700 40.422001 32.895000 6.789000 # 2 
3429 1 2 0.589700 41.639999 32.407001 6.033000 # 2 
3430 1 1 -1.179400 43.526997 32.395000 6.015000 # 1 
3431 1 2 0.589700 44.070000 31.607000 6.010000 # 2 
3432 1 2 0.589700 43.811996 32.886997 5.245000 # 2 
3433 1 1 -1.179400 24.059999 36.090000 9.024000 # 1 
3434 1 2 0.589700 24.089001 35.291000 9.550000 # 2 
3435 1 2 0.589700 24.858999 36.061001 8.498000 # 2 
3436 1 1 -1.179400 26.380001 36.090000 4.593000 # 1 
3437 1 2 0.589700 25.590000 36.091999 4.053000 # 2 
3438 1 2 0.589700 26.875000 35.327999 4.291000 # 2 
3439 1 1 -1.179400 33.770000 36.090000 4.593000 # 1 
3440 1 2 0.589700 33.271000 35.320000 4.321000 # 2 
3441 1 2 0.589700 33.751999 36.062000 5.549000 # 2 
3442 1 1 -1.179400 24.059999 45.798996 1.422000 # 1 
3443 1 2 0.589700 24.841999 45.320000 1.695000 # 2 
3444 1 2 0.589700 24.062000 46.588997 1.962000 # 2 
3445 1 1 -1.179400 24.059999 45.798996 10.608000 # 1 
3446 1 2 0.589700 24.846001 45.316002 10.352000 # 2 
3447 1 2 0.589700 24.073999 45.790001 11.565000 # 2 
3448 1 1 -1.179400 30.074999 45.114002 0.000000 # 1 
3449 1 2 0.589700 30.104000 45.639999 0.799000 # 2 
3450 1 2 0.589700 30.874001 44.587997 0.029000 # 2 
3451 1 1 -1.179400 30.074999 37.512001 2.321000 # 1 
3452 1 2 0.589700 29.293001 37.785000 2.800000 # 2 
3453 1 2 0.589700 30.072998 38.052002 1.531000 # 2 
3454 1 1 -1.179400 30.074999 46.697998 2.321000 # 1 
3455 1 2 0.589700 29.289000 46.441998 2.804000 # 2 
3456 1 2 0.589700 30.060999 47.654999 2.329000 # 2 
3457 1 1 -1.179400 30.074999 37.512001 9.709000 # 1 
3458 1 2 0.589700 30.861000 37.767998 9.226000 # 2 
3459 1 2 0.589700 30.088999 36.555000 9.700000 # 2 
3460 1 1 -1.179400 30.074999 46.697998 9.709000 # 1 
3461 1 2 0.589700 30.077000 46.157997 10.499000 # 2 
3462 1 2 0.589700 30.857000 46.424999 9.230000 # 2 
3463 1 1 -1.179400 27.755001 40.682999 0.000000 # 1 
3464 1 2 0.589700 27.256001 40.410999 0.770000 # 2 
3465 1 2 0.589700 27.737000 41.639000 0.028000 # 2 
3466 1 1 -1.179400 26.380001 36.090000 7.437000 # 1 
3467 1 2 0.589700 26.879002 36.860001 7.709000 # 2 
3468 1 2 0.589700 26.398001 36.118000 6.481000 # 2 
3469 1 1 -1.179400 26.322998 39.803001 2.210000 # 1 
3470 1 2 0.589700 26.841000 39.215000 2.759000 # 2 
3471 1 2 0.589700 25.557001 39.285999 1.961000 # 2 
3472 1 1 -1.179400 26.322998 39.803001 9.820000 # 1 
3473 1 2 0.589700 26.781002 40.084000 10.613001 # 2 
3474 1 2 0.589700 25.555000 39.330002 10.142000 # 2 
3475 1 1 -1.179400 26.322998 44.407001 2.210000 # 1 
3476 1 2 0.589700 26.055000 43.621002 2.686000 # 2 
3477 1 2 0.589700 26.813000 44.076000 1.456000 # 2 
3478 1 1 -1.179400 26.322998 44.407001 9.820000 # 1 
3479 1 2 0.589700 26.867001 44.934002 9.235000 # 2 
3480 1 2 0.589700 26.063999 43.653000 9.292000 # 2 
3481 1 1 -1.179400 27.812000 38.299999 3.713000 # 1 
3482 1 2 0.589700 28.078999 38.776001 4.499000 # 2 
3483 1 2 0.589700 27.321999 37.546001 4.044000 # 2 
3484 1 1 -1.179400 27.812000 45.910000 3.713000 # 1 
3485 1 2 0.589700 28.071001 45.382000 4.467000 # 2 
3486 1 2 0.589700 27.268000 45.324997 3.186000 # 2 
3487 1 1 -1.179400 27.812000 38.299999 8.317000 # 1 
3488 1 2 0.589700 28.577999 38.050999 8.834000 # 2 
3489 1 2 0.589700 27.293999 38.848999 8.905000 # 2 
3490 1 1 -1.179400 27.812000 45.910000 8.317000 # 1 
3491 1 2 0.589700 28.580000 46.231998 8.790000 # 2 
3492 1 2 0.589700 27.354000 46.702999 8.036000 # 2 
3493 1 1 -1.179400 32.395000 40.682999 0.000000 # 1 
3494 1 2 0.589700 32.889999 40.380997 0.762000 # 2 
3495 1 2 0.589700 31.605000 40.142998 -0.002000 # 2 
3496 1 1 -1.179400 33.770000 36.090000 7.437000 # 1 
3497 1 2 0.589700 33.275002 36.852001 7.739000 # 2 
3498 1 2 0.589700 34.560001 36.087997 7.977000 # 2 
3499 1 1 -1.179400 33.827000 39.803001 2.210000 # 1 
3500 1 2 0.589700 34.086002 40.556999 2.738000 # 2 
3501 1 2 0.589700 33.283001 39.276001 2.795000 # 2 
3502 1 1 -1.179400 33.827000 39.803001 9.820000 # 1 
3503 1 2 0.589700 33.336998 40.134003 10.573999 # 2 
3504 1 2 0.589700 34.094997 40.588997 9.344000 # 2 
3505 1 1 -1.179400 33.827000 44.407001 2.210000 # 1 
3506 1 2 0.589700 34.595001 44.879997 1.888000 # 2 
3507 1 2 0.589700 33.368999 44.125999 1.417000 # 2 
3508 1 1 -1.179400 33.827000 44.407001 9.820000 # 1 
3509 1 2 0.589700 34.593002 44.924004 10.069000 # 2 
3510 1 2 0.589700 33.307999 44.994999 9.271000 # 2 
3511 1 1 -1.179400 32.337997 38.299999 3.713000 # 1 
3512 1 2 0.589700 32.795998 37.507000 3.994000 # 2 
3513 1 2 0.589700 31.570000 37.978001 3.240000 # 2 
3514 1 1 -1.179400 32.337997 45.910000 3.713000 # 1 
3515 1 2 0.589700 31.572001 46.159000 3.196000 # 2 
3516 1 2 0.589700 32.857002 45.361000 3.125000 # 2 
3517 1 1 -1.179400 32.337997 38.299999 8.317000 # 1 
3518 1 2 0.589700 32.079002 38.828003 7.563000 # 2 
3519 1 2 0.589700 32.882000 38.884998 8.844000 # 2 
3520 1 1 -1.179400 32.337997 45.910000 8.317000 # 1 
3521 1 2 0.589700 32.827999 46.664001 7.986000 # 2 
3522 1 2 0.589700 32.070999 45.433998 7.531000 # 2 
3523 1 1 -1.179400 27.066000 42.104996 6.015000 # 1 
3524 1 2 0.589700 27.592001 42.903999 5.986000 # 2 
3525 1 2 0.589700 26.540001 42.133999 5.216000 # 2 
3526 1 1 -1.179400 33.084000 42.104996 6.015000 # 1 
3527 1 2 0.589700 33.610001 42.076000 6.814000 # 2 
3528 1 2 0.589700 32.557999 41.306000 6.044001 # 2 
3529 1 1 -1.179400 25.481998 42.104996 8.336000 # 1 
3530 1 2 0.589700 26.024000 42.099998 7.547000 # 2 
3531 1 2 0.589700 25.767000 41.334999 8.828000 # 2 
3532 1 1 -1.179400 34.667999 42.104996 8.336000 # 1 
3533 1 2 0.589700 34.407001 42.878998 8.835000 # 2 
3534 1 2 0.589700 35.625000 42.122997 8.347000 # 2 
3535 1 1 -1.179400 25.481998 42.104996 3.694000 # 1 
3536 1 2 0.589700 24.525002 42.087002 3.683000 # 2 
3537 1 2 0.589700 25.743000 41.331001 3.195000 # 2 
3538 1 1 -1.179400 34.667999 42.104996 3.694000 # 1 
3539 1 2 0.589700 34.125999 42.110001 4.483000 # 2 
3540 1 2 0.589700 34.382999 42.875000 3.202000 # 2 
3541 1 1 -1.179400 28.653000 39.785000 6.015000 # 1 
3542 1 2 0.589700 28.110001 40.573002 6.020000 # 2 
3543 1 2 0.589700 28.368000 39.292999 6.785000 # 2 
3544 1 1 -1.179400 31.497000 39.785000 6.015000 # 1 
3545 1 2 0.589700 30.539999 39.772999 5.997000 # 2 
3546 1 2 0.589700 31.758001 39.285000 5.241000 # 2 
3547 1 1 -1.179400 28.653000 44.425003 6.015000 # 1 
3548 1 2 0.589700 28.392000 44.924999 6.789000 # 2 
3549 1 2 0.589700 29.610001 44.436996 6.033000 # 2 
3550 1 1 -1.179400 31.497000 44.425003 6.015000 # 1 
3551 1 2 0.589700 32.040001 43.637001 6.010000 # 2 
3552 1 2 0.589700 31.782000 44.917000 5.245000 # 2 
3553 1 1 -1.179400 24.059999 33.769001 1.422000 # 1 
3554 1 2 0.589700 24.841999 33.290001 1.695000 # 2 
3555 1 2 0.589700 24.062000 34.558998 1.962000 # 2 
3556 1 1 -1.179400 24.059999 33.769001 10.608000 # 1 
3557 1 2 0.589700 24.846001 33.285999 10.352000 # 2 
3558 1 2 0.589700 24.073999 33.759998 11.565000 # 2 
3559 1 1 -1.179400 30.074999 33.084000 0.000000 # 1 
3560 1 2 0.589700 30.104000 33.610001 0.799000 # 2 
3561 1 2 0.589700 30.874001 32.557999 0.029000 # 2 
3562 1 1 -1.179400 30.074999 25.481998 2.321000 # 1 
3563 1 2 0.589700 29.293001 25.755001 2.800000 # 2 
3564 1 2 0.589700 30.072998 26.021999 1.531000 # 2 
3565 1 1 -1.179400 30.074999 34.667999 2.321000 # 1 
3566 1 2 0.589700 29.289000 34.411999 2.804000 # 2 
3567 1 2 0.589700 30.060999 35.625000 2.329000 # 2 
3568 1 1 -1.179400 30.074999 25.481998 9.709000 # 1 
3569 1 2 0.589700 30.861000 25.738001 9.226000 # 2 
3570 1 2 0.589700 30.088999 24.525002 9.700000 # 2 
3571 1 1 -1.179400 30.074999 34.667999 9.709000 # 1 
3572 1 2 0.589700 30.077000 34.128002 10.499000 # 2 
3573 1 2 0.589700 30.857000 34.395000 9.230000 # 2 
3574 1 1 -1.179400 27.755001 28.653000 0.000000 # 1 
3575 1 2 0.589700 27.256001 28.381001 0.770000 # 2 
3576 1 2 0.589700 27.737000 29.609001 0.028000 # 2 
3577 1 1 -1.179400 26.380001 24.059999 7.437000 # 1 
3578 1 2 0.589700 26.879002 24.830000 7.709000 # 2 
3579 1 2 0.589700 26.398001 24.087999 6.481000 # 2 
3580 1 1 -1.179400 26.322998 27.773001 2.210000 # 1 
3581 1 2 0.589700 26.841000 27.184999 2.759000 # 2 
3582 1 2 0.589700 25.557001 27.256001 1.961000 # 2 
3583 1 1 -1.179400 26.322998 27.773001 9.820000 # 1 
3584 1 2 0.589700 26.781002 28.053999 10.613001 # 2 
3585 1 2 0.589700 25.555000 27.299999 10.142000 # 2 
3586 1 1 -1.179400 26.322998 32.376999 2.210000 # 1 
3587 1 2 0.589700 26.055000 31.591000 2.686000 # 2 
3588 1 2 0.589700 26.813000 32.046001 1.456000 # 2 
3589 1 1 -1.179400 26.322998 32.376999 9.820000 # 1 
3590 1 2 0.589700 26.867001 32.903999 9.235000 # 2 
3591 1 2 0.589700 26.063999 31.623001 9.292000 # 2 
3592 1 1 -1.179400 27.812000 26.270000 3.713000 # 1 
3593 1 2 0.589700 28.078999 26.746002 4.499000 # 2 
3594 1 2 0.589700 27.321999 25.515999 4.044000 # 2 
3595 1 1 -1.179400 27.812000 33.880001 3.713000 # 1 
3596 1 2 0.589700 28.071001 33.352001 4.467000 # 2 
3597 1 2 0.589700 27.268000 33.294998 3.186000 # 2 
3598 1 1 -1.179400 27.812000 26.270000 8.317000 # 1 
3599 1 2 0.589700 28.577999 26.021000 8.834000 # 2 
3600 1 2 0.589700 27.293999 26.819000 8.905000 # 2 
3601 1 1 -1.179400 27.812000 33.880001 8.317000 # 1 
3602 1 2 0.589700 28.580000 34.202000 8.790000 # 2 
3603 1 2 0.589700 27.354000 34.673000 8.036000 # 2 
3604 1 1 -1.179400 32.395000 28.653000 0.000000 # 1 
3605 1 2 0.589700 32.889999 28.351000 0.762000 # 2 
3606 1 2 0.589700 31.605000 28.113001 -0.002000 # 2 
3607 1 1 -1.179400 33.770000 24.059999 7.437000 # 1 
3608 1 2 0.589700 33.275002 24.821999 7.739000 # 2 
3609 1 2 0.589700 34.560001 24.058001 7.977000 # 2 
3610 1 1 -1.179400 33.827000 27.773001 2.210000 # 1 
3611 1 2 0.589700 34.086002 28.527000 2.738000 # 2 
3612 1 2 0.589700 33.283001 27.246000 2.795000 # 2 
3613 1 1 -1.179400 33.827000 27.773001 9.820000 # 1 
3614 1 2 0.589700 33.336998 28.104000 10.573999 # 2 
3615 1 2 0.589700 34.094997 28.559000 9.344000 # 2 
3616 1 1 -1.179400 33.827000 32.376999 2.210000 # 1 
3617 1 2 0.589700 34.595001 32.850002 1.888000 # 2 
3618 1 2 0.589700 33.368999 32.096001 1.417000 # 2 
3619 1 1 -1.179400 33.827000 32.376999 9.820000 # 1 
3620 1 2 0.589700 34.593002 32.893997 10.069000 # 2 
3621 1 2 0.589700 33.307999 32.965000 9.271000 # 2 
3622 1 1 -1.179400 32.337997 26.270000 3.713000 # 1 
3623 1 2 0.589700 32.795998 25.476999 3.994000 # 2 
3624 1 2 0.589700 31.570000 25.948000 3.240000 # 2 
3625 1 1 -1.179400 32.337997 33.880001 3.713000 # 1 
3626 1 2 0.589700 31.572001 34.128998 3.196000 # 2 
3627 1 2 0.589700 32.857002 33.331001 3.125000 # 2 
3628 1 1 -1.179400 32.337997 26.270000 8.317000 # 1 
3629 1 2 0.589700 32.079002 26.798000 7.563000 # 2 
3630 1 2 0.589700 32.882000 26.855000 8.844000 # 2 
3631 1 1 -1.179400 32.337997 33.880001 8.317000 # 1 
3632 1 2 0.589700 32.827999 34.634003 7.986000 # 2 
3633 1 2 0.589700 32.070999 33.403999 7.531000 # 2 
3634 1 1 -1.179400 27.066000 30.074999 6.015000 # 1 
3635 1 2 0.589700 27.592001 30.874001 5.986000 # 2 
3636 1 2 0.589700 26.540001 30.104000 5.216000 # 2 
3637 1 1 -1.179400 33.084000 30.074999 6.015000 # 1 
3638 1 2 0.589700 33.610001 30.046001 6.814000 # 2 
3639 1 2 0.589700 32.557999 29.275999 6.044001 # 2 
3640 1 1 -1.179400 25.481998 30.074999 8.336000 # 1 
3641 1 2 0.589700 26.024000 30.070000 7.547000 # 2 
3642 1 2 0.589700 25.767000 29.305000 8.828000 # 2 
3643 1 1 -1.179400 34.667999 30.074999 8.336000 # 1 
3644 1 2 0.589700 34.407001 30.848999 8.835000 # 2 
3645 1 2 0.589700 35.625000 30.093000 8.347000 # 2 
3646 1 1 -1.179400 25.481998 30.074999 3.694000 # 1 
3647 1 2 0.589700 24.525002 30.057001 3.683000 # 2 
3648 1 2 0.589700 25.743000 29.300999 3.195000 # 2 
3649 1 1 -1.179400 34.667999 30.074999 3.694000 # 1 
3650 1 2 0.589700 34.125999 30.079998 4.483000 # 2 
3651 1 2 0.589700 34.382999 30.845001 3.202000 # 2 
3652 1 1 -1.179400 28.653000 27.755001 6.015000 # 1 
3653 1 2 0.589700 28.110001 28.542999 6.020000 # 2 
3654 1 2 0.589700 28.368000 27.263000 6.785000 # 2 
3655 1 1 -1.179400 31.497000 27.755001 6.015000 # 1 
3656 1 2 0.589700 30.539999 27.743000 5.997000 # 2 
3657 1 2 0.589700 31.758001 27.255001 5.241000 # 2 
3658 1 1 -1.179400 28.653000 32.395000 6.015000 # 1 
3659 1 2 0.589700 28.392000 32.895000 6.789000 # 2 
3660 1 2 0.589700 29.610001 32.407001 6.033000 # 2 
3661 1 1 -1.179400 31.497000 32.395000 6.015000 # 1 
3662 1 2 0.589700 32.040001 31.607000 6.010000 # 2 
3663 1 2 0.589700 31.782000 32.886997 5.245000 # 2 
3664 1 1 -1.179400 30.074999 27.066000 12.030000 # 1 
3665 1 2 0.589700 30.046001 26.540001 11.231001 # 2 
3666 1 2 0.589700 29.275999 27.592001 12.000999 # 2 
3667 1 1 -1.179400 27.755001 31.497000 12.030000 # 1 
3668 1 2 0.589700 28.545000 32.037003 12.032000 # 2 
3669 1 2 0.589700 27.260000 31.799000 11.268000 # 2 
3670 1 1 -1.179400 32.395000 31.497000 12.030000 # 1 
3671 1 2 0.589700 32.893997 31.768999 11.260000 # 2 
3672 1 2 0.589700 32.412998 30.541000 12.002000 # 2 
3673 1 1 -1.179400 24.059999 33.769001 13.452001 # 1 
3674 1 2 0.589700 24.841999 33.290001 13.725000 # 2 
3675 1 2 0.589700 24.062000 34.558998 13.992000 # 2 
3676 1 1 -1.179400 24.059999 33.769001 22.637999 # 1 
3677 1 2 0.589700 24.846001 33.285999 22.382000 # 2 
3678 1 2 0.589700 24.073999 33.759998 23.594999 # 2 
3679 1 1 -1.179400 30.074999 33.084000 12.030000 # 1 
3680 1 2 0.589700 30.104000 33.610001 12.829000 # 2 
3681 1 2 0.589700 30.874001 32.557999 12.059000 # 2 
3682 1 1 -1.179400 30.074999 25.481998 14.351000 # 1 
3683 1 2 0.589700 29.293001 25.755001 14.830000 # 2 
3684 1 2 0.589700 30.072998 26.021999 13.561000 # 2 
3685 1 1 -1.179400 30.074999 34.667999 14.351000 # 1 
3686 1 2 0.589700 29.289000 34.411999 14.834000 # 2 
3687 1 2 0.589700 30.060999 35.625000 14.358999 # 2 
3688 1 1 -1.179400 30.074999 25.481998 21.738998 # 1 
3689 1 2 0.589700 30.861000 25.738001 21.256001 # 2 
3690 1 2 0.589700 30.088999 24.525002 21.730001 # 2 
3691 1 1 -1.179400 30.074999 34.667999 21.738998 # 1 
3692 1 2 0.589700 30.077000 34.128002 22.528999 # 2 
3693 1 2 0.589700 30.857000 34.395000 21.259998 # 2 
3694 1 1 -1.179400 27.755001 28.653000 12.030000 # 1 
3695 1 2 0.589700 27.256001 28.381001 12.799999 # 2 
3696 1 2 0.589700 27.737000 29.609001 12.058001 # 2 
3697 1 1 -1.179400 26.380001 24.059999 19.466999 # 1 
3698 1 2 0.589700 26.879002 24.830000 19.739000 # 2 
3699 1 2 0.589700 26.398001 24.087999 18.511000 # 2 
3700 1 1 -1.179400 26.322998 27.773001 14.240000 # 1 
3701 1 2 0.589700 26.841000 27.184999 14.789000 # 2 
3702 1 2 0.589700 25.557001 27.256001 13.990999 # 2 
3703 1 1 -1.179400 26.322998 27.773001 21.849998 # 1 
3704 1 2 0.589700 26.781002 28.053999 22.643002 # 2 
3705 1 2 0.589700 25.555000 27.299999 22.172001 # 2 
3706 1 1 -1.179400 26.322998 32.376999 14.240000 # 1 
3707 1 2 0.589700 26.055000 31.591000 14.716001 # 2 
3708 1 2 0.589700 26.813000 32.046001 13.486000 # 2 
3709 1 1 -1.179400 26.322998 32.376999 21.849998 # 1 
3710 1 2 0.589700 26.867001 32.903999 21.264999 # 2 
3711 1 2 0.589700 26.063999 31.623001 21.322001 # 2 
3712 1 1 -1.179400 27.812000 26.270000 15.743000 # 1 
3713 1 2 0.589700 28.078999 26.746002 16.528999 # 2 
3714 1 2 0.589700 27.321999 25.515999 16.074001 # 2 
3715 1 1 -1.179400 27.812000 33.880001 15.743000 # 1 
3716 1 2 0.589700 28.071001 33.352001 16.497000 # 2 
3717 1 2 0.589700 27.268000 33.294998 15.216000 # 2 
3718 1 1 -1.179400 27.812000 26.270000 20.347002 # 1 
3719 1 2 0.589700 28.577999 26.021000 20.864000 # 2 
3720 1 2 0.589700 27.293999 26.819000 20.934999 # 2 
3721 1 1 -1.179400 27.812000 33.880001 20.347002 # 1 
3722 1 2 0.589700 28.580000 34.202000 20.820000 # 2 
3723 1 2 0.589700 27.354000 34.673000 20.066002 # 2 
3724 1 1 -1.179400 32.395000 28.653000 12.030000 # 1 
3725 1 2 0.589700 32.889999 28.351000 12.792000 # 2 
3726 1 2 0.589700 31.605000 28.113001 12.028000 # 2 
3727 1 1 -1.179400 33.770000 24.059999 19.466999 # 1 
3728 1 2 0.589700 33.275002 24.821999 19.768999 # 2 
3729 1 2 0.589700 34.560001 24.058001 20.007000 # 2 
3730 1 1 -1.179400 33.827000 27.773001 14.240000 # 1 
3731 1 2 0.589700 34.086002 28.527000 14.768000 # 2 
3732 1 2 0.589700 33.283001 27.246000 14.825000 # 2 
3733 1 1 -1.179400 33.827000 27.773001 21.849998 # 1 
3734 1 2 0.589700 33.336998 28.104000 22.604000 # 2 
3735 1 2 0.589700 34.094997 28.559000 21.373999 # 2 
3736 1 1 -1.179400 33.827000 32.376999 14.240000 # 1 
3737 1 2 0.589700 34.595001 32.850002 13.918000 # 2 
3738 1 2 0.589700 33.368999 32.096001 13.447000 # 2 
3739 1 1 -1.179400 33.827000 32.376999 21.849998 # 1 
3740 1 2 0.589700 34.593002 32.893997 22.099001 # 2 
3741 1 2 0.589700 33.307999 32.965000 21.301001 # 2 
3742 1 1 -1.179400 32.337997 26.270000 15.743000 # 1 
3743 1 2 0.589700 32.795998 25.476999 16.024000 # 2 
3744 1 2 0.589700 31.570000 25.948000 15.270000 # 2 
3745 1 1 -1.179400 32.337997 33.880001 15.743000 # 1 
3746 1 2 0.589700 31.572001 34.128998 15.226001 # 2 
3747 1 2 0.589700 32.857002 33.331001 15.155000 # 2 
3748 1 1 -1.179400 32.337997 26.270000 20.347002 # 1 
3749 1 2 0.589700 32.079002 26.798000 19.593000 # 2 
3750 1 2 0.589700 32.882000 26.855000 20.874001 # 2 
3751 1 1 -1.179400 32.337997 33.880001 20.347002 # 1 
3752 1 2 0.589700 32.827999 34.634003 20.016001 # 2 
3753 1 2 0.589700 32.070999 33.403999 19.561001 # 2 
3754 1 1 -1.179400 27.066000 30.074999 18.045000 # 1 
3755 1 2 0.589700 27.592001 30.874001 18.015999 # 2 
3756 1 2 0.589700 26.540001 30.104000 17.246000 # 2 
3757 1 1 -1.179400 33.084000 30.074999 18.045000 # 1 
3758 1 2 0.589700 33.610001 30.046001 18.844000 # 2 
3759 1 2 0.589700 32.557999 29.275999 18.073999 # 2 
3760 1 1 -1.179400 25.481998 30.074999 20.366001 # 1 
3761 1 2 0.589700 26.024000 30.070000 19.577000 # 2 
3762 1 2 0.589700 25.767000 29.305000 20.858000 # 2 
3763 1 1 -1.179400 34.667999 30.074999 20.366001 # 1 
3764 1 2 0.589700 34.407001 30.848999 20.865000 # 2 
3765 1 2 0.589700 35.625000 30.093000 20.376999 # 2 
3766 1 1 -1.179400 25.481998 30.074999 15.724000 # 1 
3767 1 2 0.589700 24.525002 30.057001 15.713000 # 2 
3768 1 2 0.589700 25.743000 29.300999 15.225000 # 2 
3769 1 1 -1.179400 34.667999 30.074999 15.724000 # 1 
3770 1 2 0.589700 34.125999 30.079998 16.513000 # 2 
3771 1 2 0.589700 34.382999 30.845001 15.232000 # 2 
3772 1 1 -1.179400 28.653000 27.755001 18.045000 # 1 
3773 1 2 0.589700 28.110001 28.542999 18.049999 # 2 
3774 1 2 0.589700 28.368000 27.263000 18.815001 # 2 
3775 1 1 -1.179400 31.497000 27.755001 18.045000 # 1 
3776 1 2 0.589700 30.539999 27.743000 18.027000 # 2 
3777 1 2 0.589700 31.758001 27.255001 17.271000 # 2 
3778 1 1 -1.179400 28.653000 32.395000 18.045000 # 1 
3779 1 2 0.589700 28.392000 32.895000 18.819000 # 2 
3780 1 2 0.589700 29.610001 32.407001 18.063000 # 2 
3781 1 1 -1.179400 31.497000 32.395000 18.045000 # 1 
3782 1 2 0.589700 32.040001 31.607000 18.040001 # 2 
3783 1 2 0.589700 31.782000 32.886997 17.275000 # 2 
3784 1 1 -1.179400 48.119999 24.059999 3.006000 # 1 
3785 1 2 0.589700 47.320999 24.089001 3.532000 # 2 
3786 1 2 0.589700 48.091003 24.858999 2.480000 # 2 
3787 1 1 -1.179400 48.119999 26.380999 1.422000 # 1 
3788 1 2 0.589700 47.334000 26.863998 1.678000 # 2 
3789 1 2 0.589700 48.105999 26.389000 0.465000 # 2 
3790 1 1 -1.179400 48.119999 26.380999 10.608000 # 1 
3791 1 2 0.589700 47.337997 26.860001 10.334999 # 2 
3792 1 2 0.589700 48.118000 25.591000 10.067999 # 2 
3793 1 1 -1.179400 36.090000 36.090000 9.024000 # 1 
3794 1 2 0.589700 36.118999 35.291000 9.550000 # 2 
3795 1 2 0.589700 36.889000 36.061001 8.498000 # 2 
3796 1 1 -1.179400 38.410000 36.090000 4.593000 # 1 
3797 1 2 0.589700 37.620003 36.091999 4.053000 # 2 
3798 1 2 0.589700 38.904999 35.327999 4.291000 # 2 
3799 1 1 -1.179400 45.799999 36.090000 4.593000 # 1 
3800 1 2 0.589700 45.300999 35.320000 4.321000 # 2 
3801 1 2 0.589700 45.781998 36.062000 5.549000 # 2 
3802 1 1 -1.179400 36.090000 36.090000 3.006000 # 1 
3803 1 2 0.589700 35.291000 36.118999 3.532000 # 2 
3804 1 2 0.589700 36.061001 36.889000 2.480000 # 2 
3805 1 1 -1.179400 36.090000 38.410999 1.422000 # 1 
3806 1 2 0.589700 35.304001 38.894001 1.678000 # 2 
3807 1 2 0.589700 36.076000 38.419003 0.465000 # 2 
3808 1 1 -1.179400 36.090000 38.410999 10.608000 # 1 
3809 1 2 0.589700 35.308002 38.889999 10.334999 # 2 
3810 1 2 0.589700 36.087997 37.620998 10.067999 # 2 
3811 1 1 -1.179400 36.090000 45.798996 1.422000 # 1 
3812 1 2 0.589700 36.872002 45.320000 1.695000 # 2 
3813 1 2 0.589700 36.091999 46.588997 1.962000 # 2 
3814 1 1 -1.179400 36.090000 45.798996 10.608000 # 1 
3815 1 2 0.589700 36.875999 45.316002 10.352000 # 2 
3816 1 2 0.589700 36.104000 45.790001 11.565000 # 2 
3817 1 1 -1.179400 42.104996 45.114002 0.000000 # 1 
3818 1 2 0.589700 42.133999 45.639999 0.799000 # 2 
3819 1 2 0.589700 42.903999 44.587997 0.029000 # 2 
3820 1 1 -1.179400 42.104996 37.512001 2.321000 # 1 
3821 1 2 0.589700 41.322998 37.785000 2.800000 # 2 
3822 1 2 0.589700 42.103001 38.052002 1.531000 # 2 
3823 1 1 -1.179400 42.104996 46.697998 2.321000 # 1 
3824 1 2 0.589700 41.319000 46.441998 2.804000 # 2 
3825 1 2 0.589700 42.090996 47.654999 2.329000 # 2 
3826 1 1 -1.179400 42.104996 37.512001 9.709000 # 1 
3827 1 2 0.589700 42.891003 37.767998 9.226000 # 2 
3828 1 2 0.589700 42.118996 36.555000 9.700000 # 2 
3829 1 1 -1.179400 42.104996 46.697998 9.709000 # 1 
3830 1 2 0.589700 42.107002 46.157997 10.499000 # 2 
3831 1 2 0.589700 42.887001 46.424999 9.230000 # 2 
3832 1 1 -1.179400 39.785000 40.682999 0.000000 # 1 
3833 1 2 0.589700 39.285999 40.410999 0.770000 # 2 
3834 1 2 0.589700 39.767002 41.639000 0.028000 # 2 
3835 1 1 -1.179400 38.410000 36.090000 7.437000 # 1 
3836 1 2 0.589700 38.909000 36.860001 7.709000 # 2 
3837 1 2 0.589700 38.427998 36.118000 6.481000 # 2 
3838 1 1 -1.179400 38.353001 39.803001 2.210000 # 1 
3839 1 2 0.589700 38.870998 39.215000 2.759000 # 2 
3840 1 2 0.589700 37.586998 39.285999 1.961000 # 2 
3841 1 1 -1.179400 38.353001 39.803001 9.820000 # 1 
3842 1 2 0.589700 38.811001 40.084000 10.613001 # 2 
3843 1 2 0.589700 37.584999 39.330002 10.142000 # 2 
3844 1 1 -1.179400 38.353001 44.407001 2.210000 # 1 
3845 1 2 0.589700 38.084999 43.621002 2.686000 # 2 
3846 1 2 0.589700 38.842999 44.076000 1.456000 # 2 
3847 1 1 -1.179400 38.353001 44.407001 9.820000 # 1 
3848 1 2 0.589700 38.896999 44.934002 9.235000 # 2 
3849 1 2 0.589700 38.094002 43.653000 9.292000 # 2 
3850 1 1 -1.179400 39.841999 38.299999 3.713000 # 1 
3851 1 2 0.589700 40.109001 38.776001 4.499000 # 2 
3852 1 2 0.589700 39.352001 37.546001 4.044000 # 2 
3853 1 1 -1.179400 39.841999 45.910000 3.713000 # 1 
3854 1 2 0.589700 40.100998 45.382000 4.467000 # 2 
3855 1 2 0.589700 39.298000 45.324997 3.186000 # 2 
3856 1 1 -1.179400 39.841999 38.299999 8.317000 # 1 
3857 1 2 0.589700 40.608002 38.050999 8.834000 # 2 
3858 1 2 0.589700 39.324001 38.848999 8.905000 # 2 
3859 1 1 -1.179400 39.841999 45.910000 8.317000 # 1 
3860 1 2 0.589700 40.610001 46.231998 8.790000 # 2 
3861 1 2 0.589700 39.383999 46.702999 8.036000 # 2 
3862 1 1 -1.179400 44.425003 40.682999 0.000000 # 1 
3863 1 2 0.589700 44.920002 40.380997 0.762000 # 2 
3864 1 2 0.589700 43.635002 40.142998 -0.002000 # 2 
3865 1 1 -1.179400 45.799999 36.090000 7.437000 # 1 
3866 1 2 0.589700 45.305000 36.852001 7.739000 # 2 
3867 1 2 0.589700 46.590000 36.087997 7.977000 # 2 
3868 1 1 -1.179400 45.857002 39.803001 2.210000 # 1 
3869 1 2 0.589700 46.115997 40.556999 2.738000 # 2 
3870 1 2 0.589700 45.313000 39.276001 2.795000 # 2 
3871 1 1 -1.179400 45.857002 39.803001 9.820000 # 1 
3872 1 2 0.589700 45.367004 40.134003 10.573999 # 2 
3873 1 2 0.589700 46.125000 40.588997 9.344000 # 2 
3874 1 1 -1.179400 45.857002 44.407001 2.210000 # 1 
3875 1 2 0.589700 46.625000 44.879997 1.888000 # 2 
3876 1 2 0.589700 45.398998 44.125999 1.417000 # 2 
3877 1 1 -1.179400 45.857002 44.407001 9.820000 # 1 
3878 1 2 0.589700 46.623001 44.924004 10.069000 # 2 
3879 1 2 0.589700 45.338001 44.994999 9.271000 # 2 
3880 1 1 -1.179400 44.368000 38.299999 3.713000 # 1 
3881 1 2 0.589700 44.826004 37.507000 3.994000 # 2 
3882 1 2 0.589700 43.600002 37.978001 3.240000 # 2 
3883 1 1 -1.179400 44.368000 45.910000 3.713000 # 1 
3884 1 2 0.589700 43.601997 46.159000 3.196000 # 2 
3885 1 2 0.589700 44.887001 45.361000 3.125000 # 2 
3886 1 1 -1.179400 44.368000 38.299999 8.317000 # 1 
3887 1 2 0.589700 44.109001 38.828003 7.563000 # 2 
3888 1 2 0.589700 44.911999 38.884998 8.844000 # 2 
3889 1 1 -1.179400 44.368000 45.910000 8.317000 # 1 
3890 1 2 0.589700 44.857998 46.664001 7.986000 # 2 
3891 1 2 0.589700 44.100998 45.433998 7.531000 # 2 
3892 1 1 -1.179400 39.096001 42.104996 6.015000 # 1 
3893 1 2 0.589700 39.621998 42.903999 5.986000 # 2 
3894 1 2 0.589700 38.570000 42.133999 5.216000 # 2 
3895 1 1 -1.179400 45.114002 42.104996 6.015000 # 1 
3896 1 2 0.589700 45.639999 42.076000 6.814000 # 2 
3897 1 2 0.589700 44.587997 41.306000 6.044001 # 2 
3898 1 1 -1.179400 37.512001 42.104996 8.336000 # 1 
3899 1 2 0.589700 38.054001 42.099998 7.547000 # 2 
3900 1 2 0.589700 37.797001 41.334999 8.828000 # 2 
3901 1 1 -1.179400 46.697998 42.104996 8.336000 # 1 
3902 1 2 0.589700 46.437000 42.878998 8.835000 # 2 
3903 1 2 0.589700 47.654999 42.122997 8.347000 # 2 
3904 1 1 -1.179400 37.512001 42.104996 3.694000 # 1 
3905 1 2 0.589700 36.555000 42.087002 3.683000 # 2 
3906 1 2 0.589700 37.772999 41.331001 3.195000 # 2 
3907 1 1 -1.179400 46.697998 42.104996 3.694000 # 1 
3908 1 2 0.589700 46.156002 42.110001 4.483000 # 2 
3909 1 2 0.589700 46.413002 42.875000 3.202000 # 2 
3910 1 1 -1.179400 40.682999 39.785000 6.015000 # 1 
3911 1 2 0.589700 40.139999 40.573002 6.020000 # 2 
3912 1 2 0.589700 40.398003 39.292999 6.785000 # 2 
3913 1 1 -1.179400 43.526997 39.785000 6.015000 # 1 
3914 1 2 0.589700 42.570000 39.772999 5.997000 # 2 
3915 1 2 0.589700 43.787998 39.285000 5.241000 # 2 
3916 1 1 -1.179400 40.682999 44.425003 6.015000 # 1 
3917 1 2 0.589700 40.422001 44.924999 6.789000 # 2 
3918 1 2 0.589700 41.639999 44.436996 6.033000 # 2 
3919 1 1 -1.179400 43.526997 44.425003 6.015000 # 1 
3920 1 2 0.589700 44.070000 43.637001 6.010000 # 2 
3921 1 2 0.589700 43.811996 44.917000 5.245000 # 2 
3922 1 1 -1.179400 42.104996 27.066000 12.030000 # 1 
3923 1 2 0.589700 42.076000 26.540001 11.231001 # 2 
3924 1 2 0.589700 41.306000 27.592001 12.000999 # 2 
3925 1 1 -1.179400 39.785000 31.497000 12.030000 # 1 
3926 1 2 0.589700 40.574997 32.037003 12.032000 # 2 
3927 1 2 0.589700 39.290001 31.799000 11.268000 # 2 
3928 1 1 -1.179400 44.425003 31.497000 12.030000 # 1 
3929 1 2 0.589700 44.924004 31.768999 11.260000 # 2 
3930 1 2 0.589700 44.443001 30.541000 12.002000 # 2 
3931 1 1 -1.179400 36.090000 24.059999 15.036000 # 1 
3932 1 2 0.589700 35.291000 24.089001 15.562000 # 2 
3933 1 2 0.589700 36.061001 24.858999 14.510000 # 2 
3934 1 1 -1.179400 36.090000 26.380999 13.452001 # 1 
3935 1 2 0.589700 35.304001 26.863998 13.708000 # 2 
3936 1 2 0.589700 36.076000 26.389000 12.495001 # 2 
3937 1 1 -1.179400 36.090000 26.380999 22.637999 # 1 
3938 1 2 0.589700 35.308002 26.860001 22.365000 # 2 
3939 1 2 0.589700 36.087997 25.591000 22.098000 # 2 
3940 1 1 -1.179400 36.090000 33.769001 13.452001 # 1 
3941 1 2 0.589700 36.872002 33.290001 13.725000 # 2 
3942 1 2 0.589700 36.091999 34.558998 13.992000 # 2 
3943 1 1 -1.179400 36.090000 33.769001 22.637999 # 1 
3944 1 2 0.589700 36.875999 33.285999 22.382000 # 2 
3945 1 2 0.589700 36.104000 33.759998 23.594999 # 2 
3946 1 1 -1.179400 42.104996 33.084000 12.030000 # 1 
3947 1 2 0.589700 42.133999 33.610001 12.829000 # 2 
3948 1 2 0.589700 42.903999 32.557999 12.059000 # 2 
3949 1 1 -1.179400 42.104996 25.481998 14.351000 # 1 
3950 1 2 0.589700 41.322998 25.755001 14.830000 # 2 
3951 1 2 0.589700 42.103001 26.021999 13.561000 # 2 
3952 1 1 -1.179400 42.104996 34.667999 14.351000 # 1 
3953 1 2 0.589700 41.319000 34.411999 14.834000 # 2 
3954 1 2 0.589700 42.090996 35.625000 14.358999 # 2 
3955 1 1 -1.179400 42.104996 25.481998 21.738998 # 1 
3956 1 2 0.589700 42.891003 25.738001 21.256001 # 2 
3957 1 2 0.589700 42.118996 24.525002 21.730001 # 2 
3958 1 1 -1.179400 42.104996 34.667999 21.738998 # 1 
3959 1 2 0.589700 42.107002 34.128002 22.528999 # 2 
3960 1 2 0.589700 42.887001 34.395000 21.259998 # 2 
3961 1 1 -1.179400 39.785000 28.653000 12.030000 # 1 
3962 1 2 0.589700 39.285999 28.381001 12.799999 # 2 
3963 1 2 0.589700 39.767002 29.609001 12.058001 # 2 
3964 1 1 -1.179400 38.410000 24.059999 19.466999 # 1 
3965 1 2 0.589700 38.909000 24.830000 19.739000 # 2 
3966 1 2 0.589700 38.427998 24.087999 18.511000 # 2 
3967 1 1 -1.179400 38.353001 27.773001 14.240000 # 1 
3968 1 2 0.589700 38.870998 27.184999 14.789000 # 2 
3969 1 2 0.589700 37.586998 27.256001 13.990999 # 2 
3970 1 1 -1.179400 38.353001 27.773001 21.849998 # 1 
3971 1 2 0.589700 38.811001 28.053999 22.643002 # 2 
3972 1 2 0.589700 37.584999 27.299999 22.172001 # 2 
3973 1 1 -1.179400 38.353001 32.376999 14.240000 # 1 
3974 1 2 0.589700 38.084999 31.591000 14.716001 # 2 
3975 1 2 0.589700 38.842999 32.046001 13.486000 # 2 
3976 1 1 -1.179400 38.353001 32.376999 21.849998 # 1 
3977 1 2 0.589700 38.896999 32.903999 21.264999 # 2 
3978 1 2 0.589700 38.094002 31.623001 21.322001 # 2 
3979 1 1 -1.179400 39.841999 26.270000 15.743000 # 1 
3980 1 2 0.589700 40.109001 26.746002 16.528999 # 2 
3981 1 2 0.589700 39.352001 25.515999 16.074001 # 2 
3982 1 1 -1.179400 39.841999 33.880001 15.743000 # 1 
3983 1 2 0.589700 40.100998 33.352001 16.497000 # 2 
3984 1 2 0.589700 39.298000 33.294998 15.216000 # 2 
3985 1 1 -1.179400 39.841999 26.270000 20.347002 # 1 
3986 1 2 0.589700 40.608002 26.021000 20.864000 # 2 
3987 1 2 0.589700 39.324001 26.819000 20.934999 # 2 
3988 1 1 -1.179400 39.841999 33.880001 20.347002 # 1 
3989 1 2 0.589700 40.610001 34.202000 20.820000 # 2 
3990 1 2 0.589700 39.383999 34.673000 20.066002 # 2 
3991 1 1 -1.179400 44.425003 28.653000 12.030000 # 1 
3992 1 2 0.589700 44.920002 28.351000 12.792000 # 2 
3993 1 2 0.589700 43.635002 28.113001 12.028000 # 2 
3994 1 1 -1.179400 45.799999 24.059999 19.466999 # 1 
3995 1 2 0.589700 45.305000 24.821999 19.768999 # 2 
3996 1 2 0.589700 46.590000 24.058001 20.007000 # 2 
3997 1 1 -1.179400 45.857002 27.773001 14.240000 # 1 
3998 1 2 0.589700 46.115997 28.527000 14.768000 # 2 
3999 1 2 0.589700 45.313000 27.246000 14.825000 # 2 
4000 1 1 -1.179400 45.857002 27.773001 21.849998 # 1 
4001 1 2 0.589700 45.367004 28.104000 22.604000 # 2 
4002 1 2 0.589700 46.125000 28.559000 21.373999 # 2 
4003 1 1 -1.179400 45.857002 32.376999 14.240000 # 1 
4004 1 2 0.589700 46.625000 32.850002 13.918000 # 2 
4005 1 2 0.589700 45.398998 32.096001 13.447000 # 2 
4006 1 1 -1.179400 45.857002 32.376999 21.849998 # 1 
4007 1 2 0.589700 46.623001 32.893997 22.099001 # 2 
4008 1 2 0.589700 45.338001 32.965000 21.301001 # 2 
4009 1 1 -1.179400 44.368000 26.270000 15.743000 # 1 
4010 1 2 0.589700 44.826004 25.476999 16.024000 # 2 
4011 1 2 0.589700 43.600002 25.948000 15.270000 # 2 
4012 1 1 -1.179400 44.368000 33.880001 15.743000 # 1 
4013 1 2 0.589700 43.601997 34.128998 15.226001 # 2 
4014 1 2 0.589700 44.887001 33.331001 15.155000 # 2 
4015 1 1 -1.179400 44.368000 26.270000 20.347002 # 1 
4016 1 2 0.589700 44.109001 26.798000 19.593000 # 2 
4017 1 2 0.589700 44.911999 26.855000 20.874001 # 2 
4018 1 1 -1.179400 44.368000 33.880001 20.347002 # 1 
4019 1 2 0.589700 44.857998 34.634003 20.016001 # 2 
4020 1 2 0.589700 44.100998 33.403999 19.561001 # 2 
4021 1 1 -1.179400 39.096001 30.074999 18.045000 # 1 
4022 1 2 0.589700 39.621998 30.874001 18.015999 # 2 
4023 1 2 0.589700 38.570000 30.104000 17.246000 # 2 
4024 1 1 -1.179400 45.114002 30.074999 18.045000 # 1 
4025 1 2 0.589700 45.639999 30.046001 18.844000 # 2 
4026 1 2 0.589700 44.587997 29.275999 18.073999 # 2 
4027 1 1 -1.179400 37.512001 30.074999 20.366001 # 1 
4028 1 2 0.589700 38.054001 30.070000 19.577000 # 2 
4029 1 2 0.589700 37.797001 29.305000 20.858000 # 2 
4030 1 1 -1.179400 46.697998 30.074999 20.366001 # 1 
4031 1 2 0.589700 46.437000 30.848999 20.865000 # 2 
4032 1 2 0.589700 47.654999 30.093000 20.376999 # 2 
4033 1 1 -1.179400 37.512001 30.074999 15.724000 # 1 
4034 1 2 0.589700 36.555000 30.057001 15.713000 # 2 
4035 1 2 0.589700 37.772999 29.300999 15.225000 # 2 
4036 1 1 -1.179400 46.697998 30.074999 15.724000 # 1 
4037 1 2 0.589700 46.156002 30.079998 16.513000 # 2 
4038 1 2 0.589700 46.413002 30.845001 15.232000 # 2 
4039 1 1 -1.179400 40.682999 27.755001 18.045000 # 1 
4040 1 2 0.589700 40.139999 28.542999 18.049999 # 2 
4041 1 2 0.589700 40.398003 27.263000 18.815001 # 2 
4042 1 1 -1.179400 43.526997 27.755001 18.045000 # 1 
4043 1 2 0.589700 42.570000 27.743000 18.027000 # 2 
4044 1 2 0.589700 43.787998 27.255001 17.271000 # 2 
4045 1 1 -1.179400 40.682999 32.395000 18.045000 # 1 
4046 1 2 0.589700 40.422001 32.895000 18.819000 # 2 
4047 1 2 0.589700 41.639999 32.407001 18.063000 # 2 
4048 1 1 -1.179400 43.526997 32.395000 18.045000 # 1 
4049 1 2 0.589700 44.070000 31.607000 18.040001 # 2 
4050 1 2 0.589700 43.811996 32.886997 17.275000 # 2 
4051 1 1 -1.179400 24.059999 48.119999 9.024000 # 1 
4052 1 2 0.589700 24.089001 47.320999 9.550000 # 2 
4053 1 2 0.589700 24.858999 48.091003 8.498000 # 2 
4054 1 1 -1.179400 26.380001 48.119999 4.593000 # 1 
4055 1 2 0.589700 25.590000 48.122002 4.053000 # 2 
4056 1 2 0.589700 26.875000 47.357998 4.291000 # 2 
4057 1 1 -1.179400 33.770000 48.119999 4.593000 # 1 
4058 1 2 0.589700 33.271000 47.350002 4.321000 # 2 
4059 1 2 0.589700 33.751999 48.091999 5.549000 # 2 
4060 1 1 -1.179400 30.074999 39.096001 12.030000 # 1 
4061 1 2 0.589700 30.046001 38.570000 11.231001 # 2 
4062 1 2 0.589700 29.275999 39.621998 12.000999 # 2 
4063 1 1 -1.179400 27.755001 43.526997 12.030000 # 1 
4064 1 2 0.589700 28.545000 44.067001 12.032000 # 2 
4065 1 2 0.589700 27.260000 43.828999 11.268000 # 2 
4066 1 1 -1.179400 32.395000 43.526997 12.030000 # 1 
4067 1 2 0.589700 32.893997 43.799000 11.260000 # 2 
4068 1 2 0.589700 32.412998 42.570999 12.002000 # 2 
4069 1 1 -1.179400 24.059999 36.090000 21.054001 # 1 
4070 1 2 0.589700 24.089001 35.291000 21.580000 # 2 
4071 1 2 0.589700 24.858999 36.061001 20.528000 # 2 
4072 1 1 -1.179400 26.380001 36.090000 16.622999 # 1 
4073 1 2 0.589700 25.590000 36.091999 16.083000 # 2 
4074 1 2 0.589700 26.875000 35.327999 16.320999 # 2 
4075 1 1 -1.179400 33.770000 36.090000 16.622999 # 1 
4076 1 2 0.589700 33.271000 35.320000 16.351000 # 2 
4077 1 2 0.589700 33.751999 36.062000 17.579000 # 2 
4078 1 1 -1.179400 24.059999 45.798996 13.452001 # 1 
4079 1 2 0.589700 24.841999 45.320000 13.725000 # 2 
4080 1 2 0.589700 24.062000 46.588997 13.992000 # 2 
4081 1 1 -1.179400 24.059999 45.798996 22.637999 # 1 
4082 1 2 0.589700 24.846001 45.316002 22.382000 # 2 
4083 1 2 0.589700 24.073999 45.790001 23.594999 # 2 
4084 1 1 -1.179400 30.074999 45.114002 12.030000 # 1 
4085 1 2 0.589700 30.104000 45.639999 12.829000 # 2 
4086 1 2 0.589700 30.874001 44.587997 12.059000 # 2 
4087 1 1 -1.179400 30.074999 37.512001 14.351000 # 1 
4088 1 2 0.589700 29.293001 37.785000 14.830000 # 2 
4089 1 2 0.589700 30.072998 38.052002 13.561000 # 2 
4090 1 1 -1.179400 30.074999 46.697998 14.351000 # 1 
4091 1 2 0.589700 29.289000 46.441998 14.834000 # 2 
4092 1 2 0.589700 30.060999 47.654999 14.358999 # 2 
4093 1 1 -1.179400 30.074999 37.512001 21.738998 # 1 
4094 1 2 0.589700 30.861000 37.767998 21.256001 # 2 
4095 1 2 0.589700 30.088999 36.555000 21.730001 # 2 
4096 1 1 -1.179400 30.074999 46.697998 21.738998 # 1 
4097 1 2 0.589700 30.077000 46.157997 22.528999 # 2 
4098 1 2 0.589700 30.857000 46.424999 21.259998 # 2 
4099 1 1 -1.179400 27.755001 40.682999 12.030000 # 1 
4100 1 2 0.589700 27.256001 40.410999 12.799999 # 2 
4101 1 2 0.589700 27.737000 41.639000 12.058001 # 2 
4102 1 1 -1.179400 26.380001 36.090000 19.466999 # 1 
4103 1 2 0.589700 26.879002 36.860001 19.739000 # 2 
4104 1 2 0.589700 26.398001 36.118000 18.511000 # 2 
4105 1 1 -1.179400 26.322998 39.803001 14.240000 # 1 
4106 1 2 0.589700 26.841000 39.215000 14.789000 # 2 
4107 1 2 0.589700 25.557001 39.285999 13.990999 # 2 
4108 1 1 -1.179400 26.322998 39.803001 21.849998 # 1 
4109 1 2 0.589700 26.781002 40.084000 22.643002 # 2 
4110 1 2 0.589700 25.555000 39.330002 22.172001 # 2 
4111 1 1 -1.179400 26.322998 44.407001 14.240000 # 1 
4112 1 2 0.589700 26.055000 43.621002 14.716001 # 2 
4113 1 2 0.589700 26.813000 44.076000 13.486000 # 2 
4114 1 1 -1.179400 26.322998 44.407001 21.849998 # 1 
4115 1 2 0.589700 26.867001 44.934002 21.264999 # 2 
4116 1 2 0.589700 26.063999 43.653000 21.322001 # 2 
4117 1 1 -1.179400 27.812000 38.299999 15.743000 # 1 
4118 1 2 0.589700 28.078999 38.776001 16.528999 # 2 
4119 1 2 0.589700 27.321999 37.546001 16.074001 # 2 
4120 1 1 -1.179400 27.812000 45.910000 15.743000 # 1 
4121 1 2 0.589700 28.071001 45.382000 16.497000 # 2 
4122 1 2 0.589700 27.268000 45.324997 15.216000 # 2 
4123 1 1 -1.179400 27.812000 38.299999 20.347002 # 1 
4124 1 2 0.589700 28.577999 38.050999 20.864000 # 2 
4125 1 2 0.589700 27.293999 38.848999 20.934999 # 2 
4126 1 1 -1.179400 27.812000 45.910000 20.347002 # 1 
4127 1 2 0.589700 28.580000 46.231998 20.820000 # 2 
4128 1 2 0.589700 27.354000 46.702999 20.066002 # 2 
4129 1 1 -1.179400 32.395000 40.682999 12.030000 # 1 
4130 1 2 0.589700 32.889999 40.380997 12.792000 # 2 
4131 1 2 0.589700 31.605000 40.142998 12.028000 # 2 
4132 1 1 -1.179400 33.770000 36.090000 19.466999 # 1 
4133 1 2 0.589700 33.275002 36.852001 19.768999 # 2 
4134 1 2 0.589700 34.560001 36.087997 20.007000 # 2 
4135 1 1 -1.179400 33.827000 39.803001 14.240000 # 1 
4136 1 2 0.589700 34.086002 40.556999 14.768000 # 2 
4137 1 2 0.589700 33.283001 39.276001 14.825000 # 2 
4138 1 1 -1.179400 33.827000 39.803001 21.849998 # 1 
4139 1 2 0.589700 33.336998 40.134003 22.604000 # 2 
4140 1 2 0.589700 34.094997 40.588997 21.373999 # 2 
4141 1 1 -1.179400 33.827000 44.407001 14.240000 # 1 
4142 1 2 0.589700 34.595001 44.879997 13.918000 # 2 
4143 1 2 0.589700 33.368999 44.125999 13.447000 # 2 
4144 1 1 -1.179400 33.827000 44.407001 21.849998 # 1 
4145 1 2 0.589700 34.593002 44.924004 22.099001 # 2 
4146 1 2 0.589700 33.307999 44.994999 21.301001 # 2 
4147 1 1 -1.179400 32.337997 38.299999 15.743000 # 1 
4148 1 2 0.589700 32.795998 37.507000 16.024000 # 2 
4149 1 2 0.589700 31.570000 37.978001 15.270000 # 2 
4150 1 1 -1.179400 32.337997 45.910000 15.743000 # 1 
4151 1 2 0.589700 31.572001 46.159000 15.226001 # 2 
4152 1 2 0.589700 32.857002 45.361000 15.155000 # 2 
4153 1 1 -1.179400 32.337997 38.299999 20.347002 # 1 
4154 1 2 0.589700 32.079002 38.828003 19.593000 # 2 
4155 1 2 0.589700 32.882000 38.884998 20.874001 # 2 
4156 1 1 -1.179400 32.337997 45.910000 20.347002 # 1 
4157 1 2 0.589700 32.827999 46.664001 20.016001 # 2 
4158 1 2 0.589700 32.070999 45.433998 19.561001 # 2 
4159 1 1 -1.179400 27.066000 42.104996 18.045000 # 1 
4160 1 2 0.589700 27.592001 42.903999 18.015999 # 2 
4161 1 2 0.589700 26.540001 42.133999 17.246000 # 2 
4162 1 1 -1.179400 33.084000 42.104996 18.045000 # 1 
4163 1 2 0.589700 33.610001 42.076000 18.844000 # 2 
4164 1 2 0.589700 32.557999 41.306000 18.073999 # 2 
4165 1 1 -1.179400 25.481998 42.104996 20.366001 # 1 
4166 1 2 0.589700 26.024000 42.099998 19.577000 # 2 
4167 1 2 0.589700 25.767000 41.334999 20.858000 # 2 
4168 1 1 -1.179400 34.667999 42.104996 20.366001 # 1 
4169 1 2 0.589700 34.407001 42.878998 20.865000 # 2 
4170 1 2 0.589700 35.625000 42.122997 20.376999 # 2 
4171 1 1 -1.179400 25.481998 42.104996 15.724000 # 1 
4172 1 2 0.589700 24.525002 42.087002 15.713000 # 2 
4173 1 2 0.589700 25.743000 41.331001 15.225000 # 2 
4174 1 1 -1.179400 34.667999 42.104996 15.724000 # 1 
4175 1 2 0.589700 34.125999 42.110001 16.513000 # 2 
4176 1 2 0.589700 34.382999 42.875000 15.232000 # 2 
4177 1 1 -1.179400 28.653000 39.785000 18.045000 # 1 
4178 1 2 0.589700 28.110001 40.573002 18.049999 # 2 
4179 1 2 0.589700 28.368000 39.292999 18.815001 # 2 
4180 1 1 -1.179400 31.497000 39.785000 18.045000 # 1 
4181 1 2 0.589700 30.539999 39.772999 18.027000 # 2 
4182 1 2 0.589700 31.758001 39.285000 17.271000 # 2 
4183 1 1 -1.179400 28.653000 44.425003 18.045000 # 1 
4184 1 2 0.589700 28.392000 44.924999 18.819000 # 2 
4185 1 2 0.589700 29.610001 44.436996 18.063000 # 2 
4186 1 1 -1.179400 31.497000 44.425003 18.045000 # 1 
4187 1 2 0.589700 32.040001 43.637001 18.040001 # 2 
4188 1 2 0.589700 31.782000 44.917000 17.275000 # 2 
4189 1 1 -1.179400 48.119999 36.090000 3.006000 # 1 
4190 1 2 0.589700 47.320999 36.118999 3.532000 # 2 
4191 1 2 0.589700 48.091003 36.889000 2.480000 # 2 
4192 1 1 -1.179400 48.119999 38.410999 1.422000 # 1 
4193 1 2 0.589700 47.334000 38.894001 1.678000 # 2 
4194 1 2 0.589700 48.105999 38.419003 0.465000 # 2 
4195 1 1 -1.179400 48.119999 38.410999 10.608000 # 1 
4196 1 2 0.589700 47.337997 38.889999 10.334999 # 2 
4197 1 2 0.589700 48.118000 37.620998 10.067999 # 2 
4198 1 1 -1.179400 36.090000 48.119999 9.024000 # 1 
4199 1 2 0.589700 36.118999 47.320999 9.550000 # 2 
4200 1 2 0.589700 36.889000 48.091003 8.498000 # 2 
4201 1 1 -1.179400 38.410000 48.119999 4.593000 # 1 
4202 1 2 0.589700 37.620003 48.122002 4.053000 # 2 
4203 1 2 0.589700 38.904999 47.357998 4.291000 # 2 
4204 1 1 -1.179400 45.799999 48.119999 4.593000 # 1 
4205 1 2 0.589700 45.300999 47.350002 4.321000 # 2 
4206 1 2 0.589700 45.781998 48.091999 5.549000 # 2 
4207 1 1 -1.179400 42.104996 39.096001 12.030000 # 1 
4208 1 2 0.589700 42.076000 38.570000 11.231001 # 2 
4209 1 2 0.589700 41.306000 39.621998 12.000999 # 2 
4210 1 1 -1.179400 39.785000 43.526997 12.030000 # 1 
4211 1 2 0.589700 40.574997 44.067001 12.032000 # 2 
4212 1 2 0.589700 39.290001 43.828999 11.268000 # 2 
4213 1 1 -1.179400 44.425003 43.526997 12.030000 # 1 
4214 1 2 0.589700 44.924004 43.799000 11.260000 # 2 
4215 1 2 0.589700 44.443001 42.570999 12.002000 # 2 
4216 1 1 -1.179400 36.090000 36.090000 21.054001 # 1 
4217 1 2 0.589700 36.118999 35.291000 21.580000 # 2 
4218 1 2 0.589700 36.889000 36.061001 20.528000 # 2 
4219 1 1 -1.179400 38.410000 36.090000 16.622999 # 1 
4220 1 2 0.589700 37.620003 36.091999 16.083000 # 2 
4221 1 2 0.589700 38.904999 35.327999 16.320999 # 2 
4222 1 1 -1.179400 45.799999 36.090000 16.622999 # 1 
4223 1 2 0.589700 45.300999 35.320000 16.351000 # 2 
4224 1 2 0.589700 45.781998 36.062000 17.579000 # 2 
4225 1 1 -1.179400 36.090000 36.090000 15.036000 # 1 
4226 1 2 0.589700 35.291000 36.118999 15.562000 # 2 
4227 1 2 0.589700 36.061001 36.889000 14.510000 # 2 
4228 1 1 -1.179400 36.090000 38.410999 13.452001 # 1 
4229 1 2 0.589700 35.304001 38.894001 13.708000 # 2 
4230 1 2 0.589700 36.076000 38.419003 12.495001 # 2 
4231 1 1 -1.179400 36.090000 38.410999 22.637999 # 1 
4232 1 2 0.589700 35.308002 38.889999 22.365000 # 2 
4233 1 2 0.589700 36.087997 37.620998 22.098000 # 2 
4234 1 1 -1.179400 36.090000 45.798996 13.452001 # 1 
4235 1 2 0.589700 36.872002 45.320000 13.725000 # 2 
4236 1 2 0.589700 36.091999 46.588997 13.992000 # 2 
4237 1 1 -1.179400 36.090000 45.798996 22.637999 # 1 
4238 1 2 0.589700 36.875999 45.316002 22.382000 # 2 
4239 1 2 0.589700 36.104000 45.790001 23.594999 # 2 
4240 1 1 -1.179400 42.104996 45.114002 12.030000 # 1 
4241 1 2 0.589700 42.133999 45.639999 12.829000 # 2 
4242 1 2 0.589700 42.903999 44.587997 12.059000 # 2 
4243 1 1 -1.179400 42.104996 37.512001 14.351000 # 1 
4244 1 2 0.589700 41.322998 37.785000 14.830000 # 2 
4245 1 2 0.589700 42.103001 38.052002 13.561000 # 2 
4246 1 1 -1.179400 42.104996 46.697998 14.351000 # 1 
4247 1 2 0.589700 41.319000 46.441998 14.834000 # 2 
4248 1 2 0.589700 42.090996 47.654999 14.358999 # 2 
4249 1 1 -1.179400 42.104996 37.512001 21.738998 # 1 
4250 1 2 0.589700 42.891003 37.767998 21.256001 # 2 
4251 1 2 0.589700 42.118996 36.555000 21.730001 # 2 
4252 1 1 -1.179400 42.104996 46.697998 21.738998 # 1 
4253 1 2 0.589700 42.107002 46.157997 22.528999 # 2 
4254 1 2 0.589700 42.887001 46.424999 21.259998 # 2 
4255 1 1 -1.179400 39.785000 40.682999 12.030000 # 1 
4256 1 2 0.589700 39.285999 40.410999 12.799999 # 2 
4257 1 2 0.589700 39.767002 41.639000 12.058001 # 2 
4258 1 1 -1.179400 38.410000 36.090000 19.466999 # 1 
4259 1 2 0.589700 38.909000 36.860001 19.739000 # 2 
4260 1 2 0.589700 38.427998 36.118000 18.511000 # 2 
4261 1 1 -1.179400 38.353001 39.803001 14.240000 # 1 
4262 1 2 0.589700 38.870998 39.215000 14.789000 # 2 
4263 1 2 0.589700 37.586998 39.285999 13.990999 # 2 
4264 1 1 -1.179400 38.353001 39.803001 21.849998 # 1 
4265 1 2 0.589700 38.811001 40.084000 22.643002 # 2 
4266 1 2 0.589700 37.584999 39.330002 22.172001 # 2 
4267 1 1 -1.179400 38.353001 44.407001 14.240000 # 1 
4268 1 2 0.589700 38.084999 43.621002 14.716001 # 2 
4269 1 2 0.589700 38.842999 44.076000 13.486000 # 2 
4270 1 1 -1.179400 38.353001 44.407001 21.849998 # 1 
4271 1 2 0.589700 38.896999 44.934002 21.264999 # 2 
4272 1 2 0.589700 38.094002 43.653000 21.322001 # 2 
4273 1 1 -1.179400 39.841999 38.299999 15.743000 # 1 
4274 1 2 0.589700 40.109001 38.776001 16.528999 # 2 
4275 1 2 0.589700 39.352001 37.546001 16.074001 # 2 
4276 1 1 -1.179400 39.841999 45.910000 15.743000 # 1 
4277 1 2 0.589700 40.100998 45.382000 16.497000 # 2 
4278 1 2 0.589700 39.298000 45.324997 15.216000 # 2 
4279 1 1 -1.179400 39.841999 38.299999 20.347002 # 1 
4280 1 2 0.589700 40.608002 38.050999 20.864000 # 2 
4281 1 2 0.589700 39.324001 38.848999 20.934999 # 2 
4282 1 1 -1.179400 39.841999 45.910000 20.347002 # 1 
4283 1 2 0.589700 40.610001 46.231998 20.820000 # 2 
4284 1 2 0.589700 39.383999 46.702999 20.066002 # 2 
4285 1 1 -1.179400 44.425003 40.682999 12.030000 # 1 
4286 1 2 0.589700 44.920002 40.380997 12.792000 # 2 
4287 1 2 0.589700 43.635002 40.142998 12.028000 # 2 
4288 1 1 -1.179400 45.799999 36.090000 19.466999 # 1 
4289 1 2 0.589700 45.305000 36.852001 19.768999 # 2 
4290 1 2 0.589700 46.590000 36.087997 20.007000 # 2 
4291 1 1 -1.179400 45.857002 39.803001 14.240000 # 1 
4292 1 2 0.589700 46.115997 40.556999 14.768000 # 2 
4293 1 2 0.589700 45.313000 39.276001 14.825000 # 2 
4294 1 1 -1.179400 45.857002 39.803001 21.849998 # 1 
4295 1 2 0.589700 45.367004 40.134003 22.604000 # 2 
4296 1 2 0.589700 46.125000 40.588997 21.373999 # 2 
4297 1 1 -1.179400 45.857002 44.407001 14.240000 # 1 
4298 1 2 0.589700 46.625000 44.879997 13.918000 # 2 
4299 1 2 0.589700 45.398998 44.125999 13.447000 # 2 
4300 1 1 -1.179400 45.857002 44.407001 21.849998 # 1 
4301 1 2 0.589700 46.623001 44.924004 22.099001 # 2 
4302 1 2 0.589700 45.338001 44.994999 21.301001 # 2 
4303 1 1 -1.179400 44.368000 38.299999 15.743000 # 1 
4304 1 2 0.589700 44.826004 37.507000 16.024000 # 2 
4305 1 2 0.589700 43.600002 37.978001 15.270000 # 2 
4306 1 1 -1.179400 44.368000 45.910000 15.743000 # 1 
4307 1 2 0.589700 43.601997 46.159000 15.226001 # 2 
4308 1 2 0.589700 44.887001 45.361000 15.155000 # 2 
4309 1 1 -1.179400 44.368000 38.299999 20.347002 # 1 
4310 1 2 0.589700 44.109001 38.828003 19.593000 # 2 
4311 1 2 0.589700 44.911999 38.884998 20.874001 # 2 
4312 1 1 -1.179400 44.368000 45.910000 20.347002 # 1 
4313 1 2 0.589700 44.857998 46.664001 20.016001 # 2 
4314 1 2 0.589700 44.100998 45.433998 19.561001 # 2 
4315 1 1 -1.179400 39.096001 42.104996 18.045000 # 1 
4316 1 2 0.589700 39.621998 42.903999 18.015999 # 2 
4317 1 2 0.589700 38.570000 42.133999 17.246000 # 2 
4318 1 1 -1.179400 45.114002 42.104996 18.045000 # 1 
4319 1 2 0.589700 45.639999 42.076000 18.844000 # 2 
4320 1 2 0.589700 44.587997 41.306000 18.073999 # 2 
4321 1 1 -1.179400 37.512001 42.104996 20.366001 # 1 
4322 1 2 0.589700 38.054001 42.099998 19.577000 # 2 
4323 1 2 0.589700 37.797001 41.334999 20.858000 # 2 
4324 1 1 -1.179400 46.697998 42.104996 20.366001 # 1 
4325 1 2 0.589700 46.437000 42.878998 20.865000 # 2 
4326 1 2 0.589700 47.654999 42.122997 20.376999 # 2 
4327 1 1 -1.179400 37.512001 42.104996 15.724000 # 1 
4328 1 2 0.589700 36.555000 42.087002 15.713000 # 2 
4329 1 2 0.589700 37.772999 41.331001 15.225000 # 2 
4330 1 1 -1.179400 46.697998 42.104996 15.724000 # 1 
4331 1 2 0.589700 46.156002 42.110001 16.513000 # 2 
4332 1 2 0.589700 46.413002 42.875000 15.232000 # 2 
4333 1 1 -1.179400 40.682999 39.785000 18.045000 # 1 
4334 1 2 0.589700 40.139999 40.573002 18.049999 # 2 
4335 1 2 0.589700 40.398003 39.292999 18.815001 # 2 
4336 1 1 -1.179400 43.526997 39.785000 18.045000 # 1 
4337 1 2 0.589700 42.570000 39.772999 18.027000 # 2 
4338 1 2 0.589700 43.787998 39.285000 17.271000 # 2 
4339 1 1 -1.179400 40.682999 44.425003 18.045000 # 1 
4340 1 2 0.589700 40.422001 44.924999 18.819000 # 2 
4341 1 2 0.589700 41.639999 44.436996 18.063000 # 2 
4342 1 1 -1.179400 43.526997 44.425003 18.045000 # 1 
4343 1 2 0.589700 44.070000 43.637001 18.040001 # 2 
4344 1 2 0.589700 43.811996 44.917000 17.275000 # 2 
4345 1 1 -1.179400 30.074999 27.066000 24.059999 # 1 
4346 1 2 0.589700 30.046001 26.540001 23.261002 # 2 
4347 1 2 0.589700 29.275999 27.592001 24.031000 # 2 
4348 1 1 -1.179400 27.755001 31.497000 24.059999 # 1 
4349 1 2 0.589700 28.545000 32.037003 24.062000 # 2 
4350 1 2 0.589700 27.260000 31.799000 23.297998 # 2 
4351 1 1 -1.179400 32.395000 31.497000 24.059999 # 1 
4352 1 2 0.589700 32.893997 31.768999 23.290001 # 2 
4353 1 2 0.589700 32.412998 30.541000 24.032000 # 2 
4354 1 1 -1.179400 48.119999 24.059999 15.036000 # 1 
4355 1 2 0.589700 47.320999 24.089001 15.562000 # 2 
4356 1 2 0.589700 48.091003 24.858999 14.510000 # 2 
4357 1 1 -1.179400 48.119999 26.380999 13.452001 # 1 
4358 1 2 0.589700 47.334000 26.863998 13.708000 # 2 
4359 1 2 0.589700 48.105999 26.389000 12.495001 # 2 
4360 1 1 -1.179400 48.119999 26.380999 22.637999 # 1 
4361 1 2 0.589700 47.337997 26.860001 22.365000 # 2 
4362 1 2 0.589700 48.118000 25.591000 22.098000 # 2 
4363 1 1 -1.179400 42.104996 27.066000 24.059999 # 1 
4364 1 2 0.589700 42.076000 26.540001 23.261002 # 2 
4365 1 2 0.589700 41.306000 27.592001 24.031000 # 2 
4366 1 1 -1.179400 39.785000 31.497000 24.059999 # 1 
4367 1 2 0.589700 40.574997 32.037003 24.062000 # 2 
4368 1 2 0.589700 39.290001 31.799000 23.297998 # 2 
4369 1 1 -1.179400 44.425003 31.497000 24.059999 # 1 
4370 1 2 0.589700 44.924004 31.768999 23.290001 # 2 
4371 1 2 0.589700 44.443001 30.541000 24.032000 # 2 
4372 1 1 -1.179400 24.059999 48.119999 21.054001 # 1 
4373 1 2 0.589700 24.089001 47.320999 21.580000 # 2 
4374 1 2 0.589700 24.858999 48.091003 20.528000 # 2 
4375 1 1 -1.179400 26.380001 48.119999 16.622999 # 1 
4376 1 2 0.589700 25.590000 48.122002 16.083000 # 2 
4377 1 2 0.589700 26.875000 47.357998 16.320999 # 2 
4378 1 1 -1.179400 33.770000 48.119999 16.622999 # 1 
4379 1 2 0.589700 33.271000 47.350002 16.351000 # 2 
4380 1 2 0.589700 33.751999 48.091999 17.579000 # 2 
4381 1 1 -1.179400 30.074999 39.096001 24.059999 # 1 
4382 1 2 0.589700 30.046001 38.570000 23.261002 # 2 
4383 1 2 0.589700 29.275999 39.621998 24.031000 # 2 
4384 1 1 -1.179400 27.755001 43.526997 24.059999 # 1 
4385 1 2 0.589700 28.545000 44.067001 24.062000 # 2 
4386 1 2 0.589700 27.260000 43.828999 23.297998 # 2 
4387 1 1 -1.179400 32.395000 43.526997 24.059999 # 1 
4388 1 2 0.589700 32.893997 43.799000 23.290001 # 2 
4389 1 2 0.589700 32.412998 42.570999 24.032000 # 2 
4390 1 1 -1.179400 48.119999 36.090000 15.036000 # 1 
4391 1 2 0.589700 47.320999 36.118999 15.562000 # 2 
4392 1 2 0.589700 48.091003 36.889000 14.510000 # 2 
4393 1 1 -1.179400 48.119999 38.410999 13.452001 # 1 
4394 1 2 0.589700 47.334000 38.894001 13.708000 # 2 
4395 1 2 0.589700 48.105999 38.419003 12.495001 # 2 
4396 1 1 -1.179400 48.119999 38.410999 22.637999 # 1 
4397 1 2 0.589700 47.337997 38.889999 22.365000 # 2 
4398 1 2 0.589700 48.118000 37.620998 22.098000 # 2 
4399 1 1 -1.179400 36.090000 48.119999 21.054001 # 1 
4400 1 2 0.589700 36.118999 47.320999 21.580000 # 2 
4401 1 2 0.589700 36.889000 48.091003 20.528000 # 2 
4402 1 1 -1.179400 38.410000 48.119999 16.622999 # 1 
4403 1 2 0.589700 37.620003 48.122002 16.083000 # 2 
4404 1 2 0.589700 38.904999 47.357998 16.320999 # 2 
4405 1 1 -1.179400 45.799999 48.119999 16.622999 # 1 
4406 1 2 0.589700 45.300999 47.350002 16.351000 # 2 
4407 1 2 0.589700 45.781998 48.091999 17.579000 # 2 
4408 1 1 -1.179400 42.104996 39.096001 24.059999 # 1 
4409 1 2 0.589700 42.076000 38.570000 23.261002 # 2 
4410 1 2 0.589700 41.306000 39.621998 24.031000 # 2 
4411 1 1 -1.179400 39.785000 43.526997 24.059999 # 1 
4412 1 2 0.589700 40.574997 44.067001 24.062000 # 2 
4413 1 2 0.589700 39.290001 43.828999 23.297998 # 2 
4414 1 1 -1.179400 44.425003 43.526997 24.059999 # 1 
4415 1 2 0.589700 44.924004 43.799000 23.290001 # 2 
4416 1 2 0.589700 44.443001 42.570999 24.032000 # 2 
4417 1 1 -1.179400 12.030000 0.000000 27.066000 # 1 
4418 1 2 0.589700 11.231001 0.029000 27.592001 # 2 
4419 1 2 0.589700 12.000999 0.799000 26.540001 # 2 
4420 1 1 -1.179400 12.030000 2.321000 25.481998 # 1 
4421 1 2 0.589700 11.244000 2.804000 25.738001 # 2 
4422 1 2 0.589700 12.016000 2.329000 24.525002 # 2 
4423 1 1 -1.179400 12.030000 2.321000 34.667999 # 1 
4424 1 2 0.589700 11.247999 2.800000 34.395000 # 2 
4425 1 2 0.589700 12.028000 1.531000 34.128002 # 2 
4426 1 1 -1.179400 12.030000 9.709000 25.481998 # 1 
4427 1 2 0.589700 12.812000 9.230000 25.755001 # 2 
4428 1 2 0.589700 12.032000 10.499000 26.021999 # 2 
4429 1 1 -1.179400 12.030000 9.709000 34.667999 # 1 
4430 1 2 0.589700 12.816000 9.226000 34.411999 # 2 
4431 1 2 0.589700 12.044000 9.700000 35.625000 # 2 
4432 1 1 -1.179400 18.045000 9.024000 24.059999 # 1 
4433 1 2 0.589700 18.073999 9.550000 24.858999 # 2 
4434 1 2 0.589700 18.844000 8.498000 24.089001 # 2 
4435 1 1 -1.179400 18.045000 1.422000 26.380999 # 1 
4436 1 2 0.589700 17.263000 1.695000 26.860001 # 2 
4437 1 2 0.589700 18.042999 1.962000 25.591000 # 2 
4438 1 1 -1.179400 18.045000 10.608000 26.380999 # 1 
4439 1 2 0.589700 17.259001 10.352000 26.863998 # 2 
4440 1 2 0.589700 18.031000 11.565000 26.389000 # 2 
4441 1 1 -1.179400 18.045000 1.422000 33.769001 # 1 
4442 1 2 0.589700 18.831001 1.678000 33.285999 # 2 
4443 1 2 0.589700 18.059000 0.465000 33.759998 # 2 
4444 1 1 -1.179400 18.045000 10.608000 33.769001 # 1 
4445 1 2 0.589700 18.047001 10.067999 34.558998 # 2 
4446 1 2 0.589700 18.827000 10.334999 33.290001 # 2 
4447 1 1 -1.179400 15.725000 4.593000 24.059999 # 1 
4448 1 2 0.589700 15.226001 4.321000 24.830000 # 2 
4449 1 2 0.589700 15.707001 5.549000 24.087999 # 2 
4450 1 1 -1.179400 14.349999 0.000000 31.497000 # 1 
4451 1 2 0.589700 14.849000 0.770000 31.768999 # 2 
4452 1 2 0.589700 14.368000 0.028000 30.541000 # 2 
4453 1 1 -1.179400 14.292999 3.713000 26.270000 # 1 
4454 1 2 0.589700 14.811000 3.125000 26.819000 # 2 
4455 1 2 0.589700 13.527000 3.196000 26.021000 # 2 
4456 1 1 -1.179400 14.292999 3.713000 33.880001 # 1 
4457 1 2 0.589700 14.751000 3.994000 34.673000 # 2 
4458 1 2 0.589700 13.525000 3.240000 34.202000 # 2 
4459 1 1 -1.179400 14.292999 8.317000 26.270000 # 1 
4460 1 2 0.589700 14.025001 7.531000 26.746002 # 2 
4461 1 2 0.589700 14.783000 7.986000 25.515999 # 2 
4462 1 1 -1.179400 14.292999 8.317000 33.880001 # 1 
4463 1 2 0.589700 14.837000 8.844000 33.294998 # 2 
4464 1 2 0.589700 14.033999 7.563000 33.352001 # 2 
4465 1 1 -1.179400 15.782000 2.210000 27.773001 # 1 
4466 1 2 0.589700 16.049000 2.686000 28.559000 # 2 
4467 1 2 0.589700 15.292000 1.456000 28.104000 # 2 
4468 1 1 -1.179400 15.782000 9.820000 27.773001 # 1 
4469 1 2 0.589700 16.041000 9.292000 28.527000 # 2 
4470 1 2 0.589700 15.238000 9.235000 27.246000 # 2 
4471 1 1 -1.179400 15.782000 2.210000 32.376999 # 1 
4472 1 2 0.589700 16.548000 1.961000 32.893997 # 2 
4473 1 2 0.589700 15.264000 2.759000 32.965000 # 2 
4474 1 1 -1.179400 15.782000 9.820000 32.376999 # 1 
4475 1 2 0.589700 16.549999 10.142000 32.850002 # 2 
4476 1 2 0.589700 15.324000 10.613001 32.096001 # 2 
4477 1 1 -1.179400 20.365000 4.593000 24.059999 # 1 
4478 1 2 0.589700 20.860001 4.291000 24.821999 # 2 
4479 1 2 0.589700 19.575001 4.053000 24.058001 # 2 
4480 1 1 -1.179400 21.740000 0.000000 31.497000 # 1 
4481 1 2 0.589700 21.245001 0.762000 31.799000 # 2 
4482 1 2 0.589700 22.530001 -0.002000 32.037003 # 2 
4483 1 1 -1.179400 21.797001 3.713000 26.270000 # 1 
4484 1 2 0.589700 22.056000 4.467000 26.798000 # 2 
4485 1 2 0.589700 21.252998 3.186000 26.855000 # 2 
4486 1 1 -1.179400 21.797001 3.713000 33.880001 # 1 
4487 1 2 0.589700 21.307001 4.044000 34.634003 # 2 
4488 1 2 0.589700 22.065001 4.499000 33.403999 # 2 
4489 1 1 -1.179400 21.797001 8.317000 26.270000 # 1 
4490 1 2 0.589700 22.565001 8.790000 25.948000 # 2 
4491 1 2 0.589700 21.338999 8.036000 25.476999 # 2 
4492 1 1 -1.179400 21.797001 8.317000 33.880001 # 1 
4493 1 2 0.589700 22.563000 8.834000 34.128998 # 2 
4494 1 2 0.589700 21.278000 8.905000 33.331001 # 2 
4495 1 1 -1.179400 20.308001 2.210000 27.773001 # 1 
4496 1 2 0.589700 20.766001 1.417000 28.053999 # 2 
4497 1 2 0.589700 19.540001 1.888000 27.299999 # 2 
4498 1 1 -1.179400 20.308001 9.820000 27.773001 # 1 
4499 1 2 0.589700 19.542000 10.069000 27.256001 # 2 
4500 1 2 0.589700 20.827000 9.271000 27.184999 # 2 
4501 1 1 -1.179400 20.308001 2.210000 32.376999 # 1 
4502 1 2 0.589700 20.049000 2.738000 31.623001 # 2 
4503 1 2 0.589700 20.852001 2.795000 32.903999 # 2 
4504 1 1 -1.179400 20.308001 9.820000 32.376999 # 1 
4505 1 2 0.589700 20.797998 10.573999 32.046001 # 2 
4506 1 2 0.589700 20.041000 9.344000 31.591000 # 2 
4507 1 1 -1.179400 15.036000 6.015000 30.074999 # 1 
4508 1 2 0.589700 15.562000 6.814000 30.046001 # 2 
4509 1 2 0.589700 14.510000 6.044001 29.275999 # 2 
4510 1 1 -1.179400 21.054001 6.015000 30.074999 # 1 
4511 1 2 0.589700 21.580000 5.986000 30.874001 # 2 
4512 1 2 0.589700 20.528000 5.216000 30.104000 # 2 
4513 1 1 -1.179400 13.452001 6.015000 32.396000 # 1 
4514 1 2 0.589700 13.993999 6.010000 31.607000 # 2 
4515 1 2 0.589700 13.737000 5.245000 32.888000 # 2 
4516 1 1 -1.179400 22.637999 6.015000 32.396000 # 1 
4517 1 2 0.589700 22.376999 6.789000 32.895000 # 2 
4518 1 2 0.589700 23.594999 6.033000 32.407001 # 2 
4519 1 1 -1.179400 13.452001 6.015000 27.754000 # 1 
4520 1 2 0.589700 12.495001 5.997000 27.743000 # 2 
4521 1 2 0.589700 13.712999 5.241000 27.255001 # 2 
4522 1 1 -1.179400 22.637999 6.015000 27.754000 # 1 
4523 1 2 0.589700 22.096001 6.020000 28.542999 # 2 
4524 1 2 0.589700 22.353001 6.785000 27.262001 # 2 
4525 1 1 -1.179400 16.622999 3.695000 30.074999 # 1 
4526 1 2 0.589700 16.080000 4.483000 30.079998 # 2 
4527 1 2 0.589700 16.338001 3.203000 30.845001 # 2 
4528 1 1 -1.179400 19.466999 3.695000 30.074999 # 1 
4529 1 2 0.589700 18.510000 3.683000 30.057001 # 2 
4530 1 2 0.589700 19.728001 3.195000 29.300999 # 2 
4531 1 1 -1.179400 16.622999 8.335000 30.074999 # 1 
4532 1 2 0.589700 16.362000 8.835000 30.848999 # 2 
4533 1 2 0.589700 17.580000 8.347000 30.093000 # 2 
4534 1 1 -1.179400 19.466999 8.335000 30.074999 # 1 
4535 1 2 0.589700 20.009998 7.547000 30.070000 # 2 
4536 1 2 0.589700 19.752001 8.827000 29.305000 # 2 
4537 1 1 -1.179400 0.000000 12.030000 33.084000 # 1 
4538 1 2 0.589700 0.029000 11.231001 33.610001 # 2 
4539 1 2 0.589700 0.799000 12.000999 32.557999 # 2 
4540 1 1 -1.179400 2.320000 12.030000 28.653000 # 1 
4541 1 2 0.589700 1.530000 12.032000 28.113001 # 2 
4542 1 2 0.589700 2.815000 11.268000 28.351000 # 2 
4543 1 1 -1.179400 9.710000 12.030000 28.653000 # 1 
4544 1 2 0.589700 9.211000 11.260000 28.381001 # 2 
4545 1 2 0.589700 9.692000 12.002000 29.609001 # 2 
4546 1 1 -1.179400 0.000000 21.738998 25.481998 # 1 
4547 1 2 0.589700 0.782000 21.259998 25.755001 # 2 
4548 1 2 0.589700 0.002000 22.528999 26.021999 # 2 
4549 1 1 -1.179400 0.000000 21.738998 34.667999 # 1 
4550 1 2 0.589700 0.786000 21.256001 34.411999 # 2 
4551 1 2 0.589700 0.014000 21.730001 35.625000 # 2 
4552 1 1 -1.179400 6.015000 21.054001 24.059999 # 1 
4553 1 2 0.589700 6.044001 21.580000 24.858999 # 2 
4554 1 2 0.589700 6.814000 20.528000 24.089001 # 2 
4555 1 1 -1.179400 6.015000 13.452001 26.380999 # 1 
4556 1 2 0.589700 5.233000 13.725000 26.860001 # 2 
4557 1 2 0.589700 6.013000 13.992000 25.591000 # 2 
4558 1 1 -1.179400 6.015000 22.637999 26.380999 # 1 
4559 1 2 0.589700 5.229000 22.382000 26.863998 # 2 
4560 1 2 0.589700 6.001000 23.594999 26.389000 # 2 
4561 1 1 -1.179400 6.015000 13.452001 33.769001 # 1 
4562 1 2 0.589700 6.801000 13.708000 33.285999 # 2 
4563 1 2 0.589700 6.029000 12.495001 33.759998 # 2 
4564 1 1 -1.179400 6.015000 22.637999 33.769001 # 1 
4565 1 2 0.589700 6.017000 22.098000 34.558998 # 2 
4566 1 2 0.589700 6.797000 22.365000 33.290001 # 2 
4567 1 1 -1.179400 3.695000 16.622999 24.059999 # 1 
4568 1 2 0.589700 3.196000 16.351000 24.830000 # 2 
4569 1 2 0.589700 3.677000 17.579000 24.087999 # 2 
4570 1 1 -1.179400 2.320000 12.030000 31.497000 # 1 
4571 1 2 0.589700 2.819000 12.799999 31.768999 # 2 
4572 1 2 0.589700 2.338000 12.058001 30.541000 # 2 
4573 1 1 -1.179400 2.263000 15.743000 26.270000 # 1 
4574 1 2 0.589700 2.781000 15.155000 26.819000 # 2 
4575 1 2 0.589700 1.497000 15.226001 26.021000 # 2 
4576 1 1 -1.179400 2.263000 15.743000 33.880001 # 1 
4577 1 2 0.589700 2.721000 16.024000 34.673000 # 2 
4578 1 2 0.589700 1.495000 15.270000 34.202000 # 2 
4579 1 1 -1.179400 2.263000 20.347002 26.270000 # 1 
4580 1 2 0.589700 1.995000 19.561001 26.746002 # 2 
4581 1 2 0.589700 2.753000 20.016001 25.515999 # 2 
4582 1 1 -1.179400 2.263000 20.347002 33.880001 # 1 
4583 1 2 0.589700 2.807000 20.874001 33.294998 # 2 
4584 1 2 0.589700 2.004000 19.593000 33.352001 # 2 
4585 1 1 -1.179400 3.752000 14.240000 27.773001 # 1 
4586 1 2 0.589700 4.019000 14.716001 28.559000 # 2 
4587 1 2 0.589700 3.262000 13.486000 28.104000 # 2 
4588 1 1 -1.179400 3.752000 21.849998 27.773001 # 1 
4589 1 2 0.589700 4.011000 21.322001 28.527000 # 2 
4590 1 2 0.589700 3.208000 21.264999 27.246000 # 2 
4591 1 1 -1.179400 3.752000 14.240000 32.376999 # 1 
4592 1 2 0.589700 4.518000 13.990999 32.893997 # 2 
4593 1 2 0.589700 3.234000 14.789000 32.965000 # 2 
4594 1 1 -1.179400 3.752000 21.849998 32.376999 # 1 
4595 1 2 0.589700 4.520000 22.172001 32.850002 # 2 
4596 1 2 0.589700 3.294000 22.643002 32.096001 # 2 
4597 1 1 -1.179400 8.335000 16.622999 24.059999 # 1 
4598 1 2 0.589700 8.830000 16.320999 24.821999 # 2 
4599 1 2 0.589700 7.545000 16.083000 24.058001 # 2 
4600 1 1 -1.179400 9.710000 12.030000 31.497000 # 1 
4601 1 2 0.589700 9.215000 12.792000 31.799000 # 2 
4602 1 2 0.589700 10.500000 12.028000 32.037003 # 2 
4603 1 1 -1.179400 9.767000 15.743000 26.270000 # 1 
4604 1 2 0.589700 10.025999 16.497000 26.798000 # 2 
4605 1 2 0.589700 9.223000 15.216000 26.855000 # 2 
4606 1 1 -1.179400 9.767000 15.743000 33.880001 # 1 
4607 1 2 0.589700 9.277000 16.074001 34.634003 # 2 
4608 1 2 0.589700 10.035000 16.528999 33.403999 # 2 
4609 1 1 -1.179400 9.767000 20.347002 26.270000 # 1 
4610 1 2 0.589700 10.535000 20.820000 25.948000 # 2 
4611 1 2 0.589700 9.309000 20.066002 25.476999 # 2 
4612 1 1 -1.179400 9.767000 20.347002 33.880001 # 1 
4613 1 2 0.589700 10.533000 20.864000 34.128998 # 2 
4614 1 2 0.589700 9.248000 20.934999 33.331001 # 2 
4615 1 1 -1.179400 8.278000 14.240000 27.773001 # 1 
4616 1 2 0.589700 8.736000 13.447000 28.053999 # 2 
4617 1 2 0.589700 7.510000 13.918000 27.299999 # 2 
4618 1 1 -1.179400 8.278000 21.849998 27.773001 # 1 
4619 1 2 0.589700 7.512000 22.099001 27.256001 # 2 
4620 1 2 0.589700 8.797000 21.301001 27.184999 # 2 
4621 1 1 -1.179400 8.278000 14.240000 32.376999 # 1 
4622 1 2 0.589700 8.019000 14.768000 31.623001 # 2 
4623 1 2 0.589700 8.822000 14.825000 32.903999 # 2 
4624 1 1 -1.179400 8.278000 21.849998 32.376999 # 1 
4625 1 2 0.589700 8.768000 22.604000 32.046001 # 2 
4626 1 2 0.589700 8.011000 21.373999 31.591000 # 2 
4627 1 1 -1.179400 3.006000 18.045000 30.074999 # 1 
4628 1 2 0.589700 3.532000 18.844000 30.046001 # 2 
4629 1 2 0.589700 2.480000 18.073999 29.275999 # 2 
4630 1 1 -1.179400 9.024000 18.045000 30.074999 # 1 
4631 1 2 0.589700 9.550000 18.015999 30.874001 # 2 
4632 1 2 0.589700 8.498000 17.246000 30.104000 # 2 
4633 1 1 -1.179400 1.422000 18.045000 32.396000 # 1 
4634 1 2 0.589700 1.964000 18.040001 31.607000 # 2 
4635 1 2 0.589700 1.707000 17.275000 32.888000 # 2 
4636 1 1 -1.179400 10.608000 18.045000 32.396000 # 1 
4637 1 2 0.589700 10.347000 18.819000 32.895000 # 2 
4638 1 2 0.589700 11.565000 18.063000 32.407001 # 2 
4639 1 1 -1.179400 1.422000 18.045000 27.754000 # 1 
4640 1 2 0.589700 0.465000 18.027000 27.743000 # 2 
4641 1 2 0.589700 1.683000 17.271000 27.255001 # 2 
4642 1 1 -1.179400 10.608000 18.045000 27.754000 # 1 
4643 1 2 0.589700 10.066000 18.049999 28.542999 # 2 
4644 1 2 0.589700 10.323000 18.815001 27.262001 # 2 
4645 1 1 -1.179400 4.593000 15.725000 30.074999 # 1 
4646 1 2 0.589700 4.050000 16.513000 30.079998 # 2 
4647 1 2 0.589700 4.308000 15.233001 30.845001 # 2 
4648 1 1 -1.179400 7.437000 15.725000 30.074999 # 1 
4649 1 2 0.589700 6.480000 15.713000 30.057001 # 2 
4650 1 2 0.589700 7.698000 15.225000 29.300999 # 2 
4651 1 1 -1.179400 4.593000 20.365000 30.074999 # 1 
4652 1 2 0.589700 4.332000 20.865000 30.848999 # 2 
4653 1 2 0.589700 5.550000 20.376999 30.093000 # 2 
4654 1 1 -1.179400 7.437000 20.365000 30.074999 # 1 
4655 1 2 0.589700 7.980000 19.577000 30.070000 # 2 
4656 1 2 0.589700 7.722000 20.857000 29.305000 # 2 
4657 1 1 -1.179400 0.000000 9.709000 25.481998 # 1 
4658 1 2 0.589700 0.782000 9.230000 25.755001 # 2 
4659 1 2 0.589700 0.002000 10.499000 26.021999 # 2 
4660 1 1 -1.179400 0.000000 9.709000 34.667999 # 1 
4661 1 2 0.589700 0.786000 9.226000 34.411999 # 2 
4662 1 2 0.589700 0.014000 9.700000 35.625000 # 2 
4663 1 1 -1.179400 6.015000 9.024000 24.059999 # 1 
4664 1 2 0.589700 6.044001 9.550000 24.858999 # 2 
4665 1 2 0.589700 6.814000 8.498000 24.089001 # 2 
4666 1 1 -1.179400 6.015000 1.422000 26.380999 # 1 
4667 1 2 0.589700 5.233000 1.695000 26.860001 # 2 
4668 1 2 0.589700 6.013000 1.962000 25.591000 # 2 
4669 1 1 -1.179400 6.015000 10.608000 26.380999 # 1 
4670 1 2 0.589700 5.229000 10.352000 26.863998 # 2 
4671 1 2 0.589700 6.001000 11.565000 26.389000 # 2 
4672 1 1 -1.179400 6.015000 1.422000 33.769001 # 1 
4673 1 2 0.589700 6.801000 1.678000 33.285999 # 2 
4674 1 2 0.589700 6.029000 0.465000 33.759998 # 2 
4675 1 1 -1.179400 6.015000 10.608000 33.769001 # 1 
4676 1 2 0.589700 6.017000 10.067999 34.558998 # 2 
4677 1 2 0.589700 6.797000 10.334999 33.290001 # 2 
4678 1 1 -1.179400 3.695000 4.593000 24.059999 # 1 
4679 1 2 0.589700 3.196000 4.321000 24.830000 # 2 
4680 1 2 0.589700 3.677000 5.549000 24.087999 # 2 
4681 1 1 -1.179400 2.320000 0.000000 31.497000 # 1 
4682 1 2 0.589700 2.819000 0.770000 31.768999 # 2 
4683 1 2 0.589700 2.338000 0.028000 30.541000 # 2 
4684 1 1 -1.179400 2.263000 3.713000 26.270000 # 1 
4685 1 2 0.589700 2.781000 3.125000 26.819000 # 2 
4686 1 2 0.589700 1.497000 3.196000 26.021000 # 2 
4687 1 1 -1.179400 2.263000 3.713000 33.880001 # 1 
4688 1 2 0.589700 2.721000 3.994000 34.673000 # 2 
4689 1 2 0.589700 1.495000 3.240000 34.202000 # 2 
4690 1 1 -1.179400 2.263000 8.317000 26.270000 # 1 
4691 1 2 0.589700 1.995000 7.531000 26.746002 # 2 
4692 1 2 0.589700 2.753000 7.986000 25.515999 # 2 
4693 1 1 -1.179400 2.263000 8.317000 33.880001 # 1 
4694 1 2 0.589700 2.807000 8.844000 33.294998 # 2 
4695 1 2 0.589700 2.004000 7.563000 33.352001 # 2 
4696 1 1 -1.179400 3.752000 2.210000 27.773001 # 1 
4697 1 2 0.589700 4.019000 2.686000 28.559000 # 2 
4698 1 2 0.589700 3.262000 1.456000 28.104000 # 2 
4699 1 1 -1.179400 3.752000 9.820000 27.773001 # 1 
4700 1 2 0.589700 4.011000 9.292000 28.527000 # 2 
4701 1 2 0.589700 3.208000 9.235000 27.246000 # 2 
4702 1 1 -1.179400 3.752000 2.210000 32.376999 # 1 
4703 1 2 0.589700 4.518000 1.961000 32.893997 # 2 
4704 1 2 0.589700 3.234000 2.759000 32.965000 # 2 
4705 1 1 -1.179400 3.752000 9.820000 32.376999 # 1 
4706 1 2 0.589700 4.520000 10.142000 32.850002 # 2 
4707 1 2 0.589700 3.294000 10.613001 32.096001 # 2 
4708 1 1 -1.179400 8.335000 4.593000 24.059999 # 1 
4709 1 2 0.589700 8.830000 4.291000 24.821999 # 2 
4710 1 2 0.589700 7.545000 4.053000 24.058001 # 2 
4711 1 1 -1.179400 9.710000 0.000000 31.497000 # 1 
4712 1 2 0.589700 9.215000 0.762000 31.799000 # 2 
4713 1 2 0.589700 10.500000 -0.002000 32.037003 # 2 
4714 1 1 -1.179400 9.767000 3.713000 26.270000 # 1 
4715 1 2 0.589700 10.025999 4.467000 26.798000 # 2 
4716 1 2 0.589700 9.223000 3.186000 26.855000 # 2 
4717 1 1 -1.179400 9.767000 3.713000 33.880001 # 1 
4718 1 2 0.589700 9.277000 4.044000 34.634003 # 2 
4719 1 2 0.589700 10.035000 4.499000 33.403999 # 2 
4720 1 1 -1.179400 9.767000 8.317000 26.270000 # 1 
4721 1 2 0.589700 10.535000 8.790000 25.948000 # 2 
4722 1 2 0.589700 9.309000 8.036000 25.476999 # 2 
4723 1 1 -1.179400 9.767000 8.317000 33.880001 # 1 
4724 1 2 0.589700 10.533000 8.834000 34.128998 # 2 
4725 1 2 0.589700 9.248000 8.905000 33.331001 # 2 
4726 1 1 -1.179400 8.278000 2.210000 27.773001 # 1 
4727 1 2 0.589700 8.736000 1.417000 28.053999 # 2 
4728 1 2 0.589700 7.510000 1.888000 27.299999 # 2 
4729 1 1 -1.179400 8.278000 9.820000 27.773001 # 1 
4730 1 2 0.589700 7.512000 10.069000 27.256001 # 2 
4731 1 2 0.589700 8.797000 9.271000 27.184999 # 2 
4732 1 1 -1.179400 8.278000 2.210000 32.376999 # 1 
4733 1 2 0.589700 8.019000 2.738000 31.623001 # 2 
4734 1 2 0.589700 8.822000 2.795000 32.903999 # 2 
4735 1 1 -1.179400 8.278000 9.820000 32.376999 # 1 
4736 1 2 0.589700 8.768000 10.573999 32.046001 # 2 
4737 1 2 0.589700 8.011000 9.344000 31.591000 # 2 
4738 1 1 -1.179400 3.006000 6.015000 30.074999 # 1 
4739 1 2 0.589700 3.532000 6.814000 30.046001 # 2 
4740 1 2 0.589700 2.480000 6.044001 29.275999 # 2 
4741 1 1 -1.179400 9.024000 6.015000 30.074999 # 1 
4742 1 2 0.589700 9.550000 5.986000 30.874001 # 2 
4743 1 2 0.589700 8.498000 5.216000 30.104000 # 2 
4744 1 1 -1.179400 1.422000 6.015000 32.396000 # 1 
4745 1 2 0.589700 1.964000 6.010000 31.607000 # 2 
4746 1 2 0.589700 1.707000 5.245000 32.888000 # 2 
4747 1 1 -1.179400 10.608000 6.015000 32.396000 # 1 
4748 1 2 0.589700 10.347000 6.789000 32.895000 # 2 
4749 1 2 0.589700 11.565000 6.033000 32.407001 # 2 
4750 1 1 -1.179400 1.422000 6.015000 27.754000 # 1 
4751 1 2 0.589700 0.465000 5.997000 27.743000 # 2 
4752 1 2 0.589700 1.683000 5.241000 27.255001 # 2 
4753 1 1 -1.179400 10.608000 6.015000 27.754000 # 1 
4754 1 2 0.589700 10.066000 6.020000 28.542999 # 2 
4755 1 2 0.589700 10.323000 6.785000 27.262001 # 2 
4756 1 1 -1.179400 4.593000 3.695000 30.074999 # 1 
4757 1 2 0.589700 4.050000 4.483000 30.079998 # 2 
4758 1 2 0.589700 4.308000 3.203000 30.845001 # 2 
4759 1 1 -1.179400 7.437000 3.695000 30.074999 # 1 
4760 1 2 0.589700 6.480000 3.683000 30.057001 # 2 
4761 1 2 0.589700 7.698000 3.195000 29.300999 # 2 
4762 1 1 -1.179400 4.593000 8.335000 30.074999 # 1 
4763 1 2 0.589700 4.332000 8.835000 30.848999 # 2 
4764 1 2 0.589700 5.550000 8.347000 30.093000 # 2 
4765 1 1 -1.179400 7.437000 8.335000 30.074999 # 1 
4766 1 2 0.589700 7.980000 7.547000 30.070000 # 2 
4767 1 2 0.589700 7.722000 8.827000 29.305000 # 2 
4768 1 1 -1.179400 6.015000 3.006000 36.090000 # 1 
4769 1 2 0.589700 5.986000 2.480000 35.291000 # 2 
4770 1 2 0.589700 5.216000 3.532000 36.061001 # 2 
4771 1 1 -1.179400 3.695000 7.437000 36.090000 # 1 
4772 1 2 0.589700 4.485000 7.977000 36.091999 # 2 
4773 1 2 0.589700 3.200000 7.739000 35.327999 # 2 
4774 1 1 -1.179400 8.335000 7.437000 36.090000 # 1 
4775 1 2 0.589700 8.834000 7.709000 35.320000 # 2 
4776 1 2 0.589700 8.353000 6.481000 36.062000 # 2 
4777 1 1 -1.179400 0.000000 9.709000 37.512001 # 1 
4778 1 2 0.589700 0.782000 9.230000 37.785000 # 2 
4779 1 2 0.589700 0.002000 10.499000 38.052002 # 2 
4780 1 1 -1.179400 0.000000 9.709000 46.697998 # 1 
4781 1 2 0.589700 0.786000 9.226000 46.441998 # 2 
4782 1 2 0.589700 0.014000 9.700000 47.654999 # 2 
4783 1 1 -1.179400 6.015000 9.024000 36.090000 # 1 
4784 1 2 0.589700 6.044001 9.550000 36.889000 # 2 
4785 1 2 0.589700 6.814000 8.498000 36.118999 # 2 
4786 1 1 -1.179400 6.015000 1.422000 38.410999 # 1 
4787 1 2 0.589700 5.233000 1.695000 38.889999 # 2 
4788 1 2 0.589700 6.013000 1.962000 37.620998 # 2 
4789 1 1 -1.179400 6.015000 10.608000 38.410999 # 1 
4790 1 2 0.589700 5.229000 10.352000 38.894001 # 2 
4791 1 2 0.589700 6.001000 11.565000 38.419003 # 2 
4792 1 1 -1.179400 6.015000 1.422000 45.798996 # 1 
4793 1 2 0.589700 6.801000 1.678000 45.316002 # 2 
4794 1 2 0.589700 6.029000 0.465000 45.790001 # 2 
4795 1 1 -1.179400 6.015000 10.608000 45.798996 # 1 
4796 1 2 0.589700 6.017000 10.067999 46.588997 # 2 
4797 1 2 0.589700 6.797000 10.334999 45.320000 # 2 
4798 1 1 -1.179400 3.695000 4.593000 36.090000 # 1 
4799 1 2 0.589700 3.196000 4.321000 36.860001 # 2 
4800 1 2 0.589700 3.677000 5.549000 36.118000 # 2 
4801 1 1 -1.179400 2.320000 0.000000 43.526997 # 1 
4802 1 2 0.589700 2.819000 0.770000 43.799000 # 2 
4803 1 2 0.589700 2.338000 0.028000 42.570999 # 2 
4804 1 1 -1.179400 2.263000 3.713000 38.299999 # 1 
4805 1 2 0.589700 2.781000 3.125000 38.848999 # 2 
4806 1 2 0.589700 1.497000 3.196000 38.050999 # 2 
4807 1 1 -1.179400 2.263000 3.713000 45.910000 # 1 
4808 1 2 0.589700 2.721000 3.994000 46.702999 # 2 
4809 1 2 0.589700 1.495000 3.240000 46.231998 # 2 
4810 1 1 -1.179400 2.263000 8.317000 38.299999 # 1 
4811 1 2 0.589700 1.995000 7.531000 38.776001 # 2 
4812 1 2 0.589700 2.753000 7.986000 37.546001 # 2 
4813 1 1 -1.179400 2.263000 8.317000 45.910000 # 1 
4814 1 2 0.589700 2.807000 8.844000 45.324997 # 2 
4815 1 2 0.589700 2.004000 7.563000 45.382000 # 2 
4816 1 1 -1.179400 3.752000 2.210000 39.803001 # 1 
4817 1 2 0.589700 4.019000 2.686000 40.588997 # 2 
4818 1 2 0.589700 3.262000 1.456000 40.134003 # 2 
4819 1 1 -1.179400 3.752000 9.820000 39.803001 # 1 
4820 1 2 0.589700 4.011000 9.292000 40.556999 # 2 
4821 1 2 0.589700 3.208000 9.235000 39.276001 # 2 
4822 1 1 -1.179400 3.752000 2.210000 44.407001 # 1 
4823 1 2 0.589700 4.518000 1.961000 44.924004 # 2 
4824 1 2 0.589700 3.234000 2.759000 44.994999 # 2 
4825 1 1 -1.179400 3.752000 9.820000 44.407001 # 1 
4826 1 2 0.589700 4.520000 10.142000 44.879997 # 2 
4827 1 2 0.589700 3.294000 10.613001 44.125999 # 2 
4828 1 1 -1.179400 8.335000 4.593000 36.090000 # 1 
4829 1 2 0.589700 8.830000 4.291000 36.852001 # 2 
4830 1 2 0.589700 7.545000 4.053000 36.087997 # 2 
4831 1 1 -1.179400 9.710000 0.000000 43.526997 # 1 
4832 1 2 0.589700 9.215000 0.762000 43.828999 # 2 
4833 1 2 0.589700 10.500000 -0.002000 44.067001 # 2 
4834 1 1 -1.179400 9.767000 3.713000 38.299999 # 1 
4835 1 2 0.589700 10.025999 4.467000 38.828003 # 2 
4836 1 2 0.589700 9.223000 3.186000 38.884998 # 2 
4837 1 1 -1.179400 9.767000 3.713000 45.910000 # 1 
4838 1 2 0.589700 9.277000 4.044000 46.664001 # 2 
4839 1 2 0.589700 10.035000 4.499000 45.433998 # 2 
4840 1 1 -1.179400 9.767000 8.317000 38.299999 # 1 
4841 1 2 0.589700 10.535000 8.790000 37.978001 # 2 
4842 1 2 0.589700 9.309000 8.036000 37.507000 # 2 
4843 1 1 -1.179400 9.767000 8.317000 45.910000 # 1 
4844 1 2 0.589700 10.533000 8.834000 46.159000 # 2 
4845 1 2 0.589700 9.248000 8.905000 45.361000 # 2 
4846 1 1 -1.179400 8.278000 2.210000 39.803001 # 1 
4847 1 2 0.589700 8.736000 1.417000 40.084000 # 2 
4848 1 2 0.589700 7.510000 1.888000 39.330002 # 2 
4849 1 1 -1.179400 8.278000 9.820000 39.803001 # 1 
4850 1 2 0.589700 7.512000 10.069000 39.285999 # 2 
4851 1 2 0.589700 8.797000 9.271000 39.215000 # 2 
4852 1 1 -1.179400 8.278000 2.210000 44.407001 # 1 
4853 1 2 0.589700 8.019000 2.738000 43.653000 # 2 
4854 1 2 0.589700 8.822000 2.795000 44.934002 # 2 
4855 1 1 -1.179400 8.278000 9.820000 44.407001 # 1 
4856 1 2 0.589700 8.768000 10.573999 44.076000 # 2 
4857 1 2 0.589700 8.011000 9.344000 43.621002 # 2 
4858 1 1 -1.179400 3.006000 6.015000 42.104996 # 1 
4859 1 2 0.589700 3.532000 6.814000 42.076000 # 2 
4860 1 2 0.589700 2.480000 6.044001 41.306000 # 2 
4861 1 1 -1.179400 9.024000 6.015000 42.104996 # 1 
4862 1 2 0.589700 9.550000 5.986000 42.903999 # 2 
4863 1 2 0.589700 8.498000 5.216000 42.133999 # 2 
4864 1 1 -1.179400 1.422000 6.015000 44.426003 # 1 
4865 1 2 0.589700 1.964000 6.010000 43.637001 # 2 
4866 1 2 0.589700 1.707000 5.245000 44.917999 # 2 
4867 1 1 -1.179400 10.608000 6.015000 44.426003 # 1 
4868 1 2 0.589700 10.347000 6.789000 44.924999 # 2 
4869 1 2 0.589700 11.565000 6.033000 44.436996 # 2 
4870 1 1 -1.179400 1.422000 6.015000 39.784000 # 1 
4871 1 2 0.589700 0.465000 5.997000 39.772999 # 2 
4872 1 2 0.589700 1.683000 5.241000 39.285000 # 2 
4873 1 1 -1.179400 10.608000 6.015000 39.784000 # 1 
4874 1 2 0.589700 10.066000 6.020000 40.573002 # 2 
4875 1 2 0.589700 10.323000 6.785000 39.292000 # 2 
4876 1 1 -1.179400 4.593000 3.695000 42.104996 # 1 
4877 1 2 0.589700 4.050000 4.483000 42.110001 # 2 
4878 1 2 0.589700 4.308000 3.203000 42.875000 # 2 
4879 1 1 -1.179400 7.437000 3.695000 42.104996 # 1 
4880 1 2 0.589700 6.480000 3.683000 42.087002 # 2 
4881 1 2 0.589700 7.698000 3.195000 41.331001 # 2 
4882 1 1 -1.179400 4.593000 8.335000 42.104996 # 1 
4883 1 2 0.589700 4.332000 8.835000 42.878998 # 2 
4884 1 2 0.589700 5.550000 8.347000 42.122997 # 2 
4885 1 1 -1.179400 7.437000 8.335000 42.104996 # 1 
4886 1 2 0.589700 7.980000 7.547000 42.099998 # 2 
4887 1 2 0.589700 7.722000 8.827000 41.334999 # 2 
4888 1 1 -1.179400 24.059999 0.000000 27.066000 # 1 
4889 1 2 0.589700 23.261002 0.029000 27.592001 # 2 
4890 1 2 0.589700 24.031000 0.799000 26.540001 # 2 
4891 1 1 -1.179400 24.059999 2.321000 25.481998 # 1 
4892 1 2 0.589700 23.274000 2.804000 25.738001 # 2 
4893 1 2 0.589700 24.046000 2.329000 24.525002 # 2 
4894 1 1 -1.179400 24.059999 2.321000 34.667999 # 1 
4895 1 2 0.589700 23.278000 2.800000 34.395000 # 2 
4896 1 2 0.589700 24.058001 1.531000 34.128002 # 2 
4897 1 1 -1.179400 12.030000 12.030000 33.084000 # 1 
4898 1 2 0.589700 12.059000 11.231001 33.610001 # 2 
4899 1 2 0.589700 12.829000 12.000999 32.557999 # 2 
4900 1 1 -1.179400 14.349999 12.030000 28.653000 # 1 
4901 1 2 0.589700 13.559999 12.032000 28.113001 # 2 
4902 1 2 0.589700 14.845000 11.268000 28.351000 # 2 
4903 1 1 -1.179400 21.740000 12.030000 28.653000 # 1 
4904 1 2 0.589700 21.240999 11.260000 28.381001 # 2 
4905 1 2 0.589700 21.722000 12.002000 29.609001 # 2 
4906 1 1 -1.179400 12.030000 12.030000 27.066000 # 1 
4907 1 2 0.589700 11.231001 12.059000 27.592001 # 2 
4908 1 2 0.589700 12.000999 12.829000 26.540001 # 2 
4909 1 1 -1.179400 12.030000 14.351000 25.481998 # 1 
4910 1 2 0.589700 11.244000 14.834000 25.738001 # 2 
4911 1 2 0.589700 12.016000 14.358999 24.525002 # 2 
4912 1 1 -1.179400 12.030000 14.351000 34.667999 # 1 
4913 1 2 0.589700 11.247999 14.830000 34.395000 # 2 
4914 1 2 0.589700 12.028000 13.561000 34.128002 # 2 
4915 1 1 -1.179400 12.030000 21.738998 25.481998 # 1 
4916 1 2 0.589700 12.812000 21.259998 25.755001 # 2 
4917 1 2 0.589700 12.032000 22.528999 26.021999 # 2 
4918 1 1 -1.179400 12.030000 21.738998 34.667999 # 1 
4919 1 2 0.589700 12.816000 21.256001 34.411999 # 2 
4920 1 2 0.589700 12.044000 21.730001 35.625000 # 2 
4921 1 1 -1.179400 18.045000 21.054001 24.059999 # 1 
4922 1 2 0.589700 18.073999 21.580000 24.858999 # 2 
4923 1 2 0.589700 18.844000 20.528000 24.089001 # 2 
4924 1 1 -1.179400 18.045000 13.452001 26.380999 # 1 
4925 1 2 0.589700 17.263000 13.725000 26.860001 # 2 
4926 1 2 0.589700 18.042999 13.992000 25.591000 # 2 
4927 1 1 -1.179400 18.045000 22.637999 26.380999 # 1 
4928 1 2 0.589700 17.259001 22.382000 26.863998 # 2 
4929 1 2 0.589700 18.031000 23.594999 26.389000 # 2 
4930 1 1 -1.179400 18.045000 13.452001 33.769001 # 1 
4931 1 2 0.589700 18.831001 13.708000 33.285999 # 2 
4932 1 2 0.589700 18.059000 12.495001 33.759998 # 2 
4933 1 1 -1.179400 18.045000 22.637999 33.769001 # 1 
4934 1 2 0.589700 18.047001 22.098000 34.558998 # 2 
4935 1 2 0.589700 18.827000 22.365000 33.290001 # 2 
4936 1 1 -1.179400 15.725000 16.622999 24.059999 # 1 
4937 1 2 0.589700 15.226001 16.351000 24.830000 # 2 
4938 1 2 0.589700 15.707001 17.579000 24.087999 # 2 
4939 1 1 -1.179400 14.349999 12.030000 31.497000 # 1 
4940 1 2 0.589700 14.849000 12.799999 31.768999 # 2 
4941 1 2 0.589700 14.368000 12.058001 30.541000 # 2 
4942 1 1 -1.179400 14.292999 15.743000 26.270000 # 1 
4943 1 2 0.589700 14.811000 15.155000 26.819000 # 2 
4944 1 2 0.589700 13.527000 15.226001 26.021000 # 2 
4945 1 1 -1.179400 14.292999 15.743000 33.880001 # 1 
4946 1 2 0.589700 14.751000 16.024000 34.673000 # 2 
4947 1 2 0.589700 13.525000 15.270000 34.202000 # 2 
4948 1 1 -1.179400 14.292999 20.347002 26.270000 # 1 
4949 1 2 0.589700 14.025001 19.561001 26.746002 # 2 
4950 1 2 0.589700 14.783000 20.016001 25.515999 # 2 
4951 1 1 -1.179400 14.292999 20.347002 33.880001 # 1 
4952 1 2 0.589700 14.837000 20.874001 33.294998 # 2 
4953 1 2 0.589700 14.033999 19.593000 33.352001 # 2 
4954 1 1 -1.179400 15.782000 14.240000 27.773001 # 1 
4955 1 2 0.589700 16.049000 14.716001 28.559000 # 2 
4956 1 2 0.589700 15.292000 13.486000 28.104000 # 2 
4957 1 1 -1.179400 15.782000 21.849998 27.773001 # 1 
4958 1 2 0.589700 16.041000 21.322001 28.527000 # 2 
4959 1 2 0.589700 15.238000 21.264999 27.246000 # 2 
4960 1 1 -1.179400 15.782000 14.240000 32.376999 # 1 
4961 1 2 0.589700 16.548000 13.990999 32.893997 # 2 
4962 1 2 0.589700 15.264000 14.789000 32.965000 # 2 
4963 1 1 -1.179400 15.782000 21.849998 32.376999 # 1 
4964 1 2 0.589700 16.549999 22.172001 32.850002 # 2 
4965 1 2 0.589700 15.324000 22.643002 32.096001 # 2 
4966 1 1 -1.179400 20.365000 16.622999 24.059999 # 1 
4967 1 2 0.589700 20.860001 16.320999 24.821999 # 2 
4968 1 2 0.589700 19.575001 16.083000 24.058001 # 2 
4969 1 1 -1.179400 21.740000 12.030000 31.497000 # 1 
4970 1 2 0.589700 21.245001 12.792000 31.799000 # 2 
4971 1 2 0.589700 22.530001 12.028000 32.037003 # 2 
4972 1 1 -1.179400 21.797001 15.743000 26.270000 # 1 
4973 1 2 0.589700 22.056000 16.497000 26.798000 # 2 
4974 1 2 0.589700 21.252998 15.216000 26.855000 # 2 
4975 1 1 -1.179400 21.797001 15.743000 33.880001 # 1 
4976 1 2 0.589700 21.307001 16.074001 34.634003 # 2 
4977 1 2 0.589700 22.065001 16.528999 33.403999 # 2 
4978 1 1 -1.179400 21.797001 20.347002 26.270000 # 1 
4979 1 2 0.589700 22.565001 20.820000 25.948000 # 2 
4980 1 2 0.589700 21.338999 20.066002 25.476999 # 2 
4981 1 1 -1.179400 21.797001 20.347002 33.880001 # 1 
4982 1 2 0.589700 22.563000 20.864000 34.128998 # 2 
4983 1 2 0.589700 21.278000 20.934999 33.331001 # 2 
4984 1 1 -1.179400 20.308001 14.240000 27.773001 # 1 
4985 1 2 0.589700 20.766001 13.447000 28.053999 # 2 
4986 1 2 0.589700 19.540001 13.918000 27.299999 # 2 
4987 1 1 -1.179400 20.308001 21.849998 27.773001 # 1 
4988 1 2 0.589700 19.542000 22.099001 27.256001 # 2 
4989 1 2 0.589700 20.827000 21.301001 27.184999 # 2 
4990 1 1 -1.179400 20.308001 14.240000 32.376999 # 1 
4991 1 2 0.589700 20.049000 14.768000 31.623001 # 2 
4992 1 2 0.589700 20.852001 14.825000 32.903999 # 2 
4993 1 1 -1.179400 20.308001 21.849998 32.376999 # 1 
4994 1 2 0.589700 20.797998 22.604000 32.046001 # 2 
4995 1 2 0.589700 20.041000 21.373999 31.591000 # 2 
4996 1 1 -1.179400 15.036000 18.045000 30.074999 # 1 
4997 1 2 0.589700 15.562000 18.844000 30.046001 # 2 
4998 1 2 0.589700 14.510000 18.073999 29.275999 # 2 
4999 1 1 -1.179400 21.054001 18.045000 30.074999 # 1 
5000 1 2 0.589700 21.580000 18.015999 30.874001 # 2 
5001 1 2 0.589700 20.528000 17.246000 30.104000 # 2 
5002 1 1 -1.179400 13.452001 18.045000 32.396000 # 1 
5003 1 2 0.589700 13.993999 18.040001 31.607000 # 2 
5004 1 2 0.589700 13.737000 17.275000 32.888000 # 2 
5005 1 1 -1.179400 22.637999 18.045000 32.396000 # 1 
5006 1 2 0.589700 22.376999 18.819000 32.895000 # 2 
5007 1 2 0.589700 23.594999 18.063000 32.407001 # 2 
5008 1 1 -1.179400 13.452001 18.045000 27.754000 # 1 
5009 1 2 0.589700 12.495001 18.027000 27.743000 # 2 
5010 1 2 0.589700 13.712999 17.271000 27.255001 # 2 
5011 1 1 -1.179400 22.637999 18.045000 27.754000 # 1 
5012 1 2 0.589700 22.096001 18.049999 28.542999 # 2 
5013 1 2 0.589700 22.353001 18.815001 27.262001 # 2 
5014 1 1 -1.179400 16.622999 15.725000 30.074999 # 1 
5015 1 2 0.589700 16.080000 16.513000 30.079998 # 2 
5016 1 2 0.589700 16.338001 15.233001 30.845001 # 2 
5017 1 1 -1.179400 19.466999 15.725000 30.074999 # 1 
5018 1 2 0.589700 18.510000 15.713000 30.057001 # 2 
5019 1 2 0.589700 19.728001 15.225000 29.300999 # 2 
5020 1 1 -1.179400 16.622999 20.365000 30.074999 # 1 
5021 1 2 0.589700 16.362000 20.865000 30.848999 # 2 
5022 1 2 0.589700 17.580000 20.376999 30.093000 # 2 
5023 1 1 -1.179400 19.466999 20.365000 30.074999 # 1 
5024 1 2 0.589700 20.009998 19.577000 30.070000 # 2 
5025 1 2 0.589700 19.752001 20.857000 29.305000 # 2 
5026 1 1 -1.179400 18.045000 3.006000 36.090000 # 1 
5027 1 2 0.589700 18.015999 2.480000 35.291000 # 2 
5028 1 2 0.589700 17.246000 3.532000 36.061001 # 2 
5029 1 1 -1.179400 15.725000 7.437000 36.090000 # 1 
5030 1 2 0.589700 16.514999 7.977000 36.091999 # 2 
5031 1 2 0.589700 15.230000 7.739000 35.327999 # 2 
5032 1 1 -1.179400 20.365000 7.437000 36.090000 # 1 
5033 1 2 0.589700 20.864000 7.709000 35.320000 # 2 
5034 1 2 0.589700 20.382999 6.481000 36.062000 # 2 
5035 1 1 -1.179400 12.030000 0.000000 39.096001 # 1 
5036 1 2 0.589700 11.231001 0.029000 39.621998 # 2 
5037 1 2 0.589700 12.000999 0.799000 38.570000 # 2 
5038 1 1 -1.179400 12.030000 2.321000 37.512001 # 1 
5039 1 2 0.589700 11.244000 2.804000 37.767998 # 2 
5040 1 2 0.589700 12.016000 2.329000 36.555000 # 2 
5041 1 1 -1.179400 12.030000 2.321000 46.697998 # 1 
5042 1 2 0.589700 11.247999 2.800000 46.424999 # 2 
5043 1 2 0.589700 12.028000 1.531000 46.157997 # 2 
5044 1 1 -1.179400 12.030000 9.709000 37.512001 # 1 
5045 1 2 0.589700 12.812000 9.230000 37.785000 # 2 
5046 1 2 0.589700 12.032000 10.499000 38.052002 # 2 
5047 1 1 -1.179400 12.030000 9.709000 46.697998 # 1 
5048 1 2 0.589700 12.816000 9.226000 46.441998 # 2 
5049 1 2 0.589700 12.044000 9.700000 47.654999 # 2 
5050 1 1 -1.179400 18.045000 9.024000 36.090000 # 1 
5051 1 2 0.589700 18.073999 9.550000 36.889000 # 2 
5052 1 2 0.589700 18.844000 8.498000 36.118999 # 2 
5053 1 1 -1.179400 18.045000 1.422000 38.410999 # 1 
5054 1 2 0.589700 17.263000 1.695000 38.889999 # 2 
5055 1 2 0.589700 18.042999 1.962000 37.620998 # 2 
5056 1 1 -1.179400 18.045000 10.608000 38.410999 # 1 
5057 1 2 0.589700 17.259001 10.352000 38.894001 # 2 
5058 1 2 0.589700 18.031000 11.565000 38.419003 # 2 
5059 1 1 -1.179400 18.045000 1.422000 45.798996 # 1 
5060 1 2 0.589700 18.831001 1.678000 45.316002 # 2 
5061 1 2 0.589700 18.059000 0.465000 45.790001 # 2 
5062 1 1 -1.179400 18.045000 10.608000 45.798996 # 1 
5063 1 2 0.589700 18.047001 10.067999 46.588997 # 2 
5064 1 2 0.589700 18.827000 10.334999 45.320000 # 2 
5065 1 1 -1.179400 15.725000 4.593000 36.090000 # 1 
5066 1 2 0.589700 15.226001 4.321000 36.860001 # 2 
5067 1 2 0.589700 15.707001 5.549000 36.118000 # 2 
5068 1 1 -1.179400 14.349999 0.000000 43.526997 # 1 
5069 1 2 0.589700 14.849000 0.770000 43.799000 # 2 
5070 1 2 0.589700 14.368000 0.028000 42.570999 # 2 
5071 1 1 -1.179400 14.292999 3.713000 38.299999 # 1 
5072 1 2 0.589700 14.811000 3.125000 38.848999 # 2 
5073 1 2 0.589700 13.527000 3.196000 38.050999 # 2 
5074 1 1 -1.179400 14.292999 3.713000 45.910000 # 1 
5075 1 2 0.589700 14.751000 3.994000 46.702999 # 2 
5076 1 2 0.589700 13.525000 3.240000 46.231998 # 2 
5077 1 1 -1.179400 14.292999 8.317000 38.299999 # 1 
5078 1 2 0.589700 14.025001 7.531000 38.776001 # 2 
5079 1 2 0.589700 14.783000 7.986000 37.546001 # 2 
5080 1 1 -1.179400 14.292999 8.317000 45.910000 # 1 
5081 1 2 0.589700 14.837000 8.844000 45.324997 # 2 
5082 1 2 0.589700 14.033999 7.563000 45.382000 # 2 
5083 1 1 -1.179400 15.782000 2.210000 39.803001 # 1 
5084 1 2 0.589700 16.049000 2.686000 40.588997 # 2 
5085 1 2 0.589700 15.292000 1.456000 40.134003 # 2 
5086 1 1 -1.179400 15.782000 9.820000 39.803001 # 1 
5087 1 2 0.589700 16.041000 9.292000 40.556999 # 2 
5088 1 2 0.589700 15.238000 9.235000 39.276001 # 2 
5089 1 1 -1.179400 15.782000 2.210000 44.407001 # 1 
5090 1 2 0.589700 16.548000 1.961000 44.924004 # 2 
5091 1 2 0.589700 15.264000 2.759000 44.994999 # 2 
5092 1 1 -1.179400 15.782000 9.820000 44.407001 # 1 
5093 1 2 0.589700 16.549999 10.142000 44.879997 # 2 
5094 1 2 0.589700 15.324000 10.613001 44.125999 # 2 
5095 1 1 -1.179400 20.365000 4.593000 36.090000 # 1 
5096 1 2 0.589700 20.860001 4.291000 36.852001 # 2 
5097 1 2 0.589700 19.575001 4.053000 36.087997 # 2 
5098 1 1 -1.179400 21.740000 0.000000 43.526997 # 1 
5099 1 2 0.589700 21.245001 0.762000 43.828999 # 2 
5100 1 2 0.589700 22.530001 -0.002000 44.067001 # 2 
5101 1 1 -1.179400 21.797001 3.713000 38.299999 # 1 
5102 1 2 0.589700 22.056000 4.467000 38.828003 # 2 
5103 1 2 0.589700 21.252998 3.186000 38.884998 # 2 
5104 1 1 -1.179400 21.797001 3.713000 45.910000 # 1 
5105 1 2 0.589700 21.307001 4.044000 46.664001 # 2 
5106 1 2 0.589700 22.065001 4.499000 45.433998 # 2 
5107 1 1 -1.179400 21.797001 8.317000 38.299999 # 1 
5108 1 2 0.589700 22.565001 8.790000 37.978001 # 2 
5109 1 2 0.589700 21.338999 8.036000 37.507000 # 2 
5110 1 1 -1.179400 21.797001 8.317000 45.910000 # 1 
5111 1 2 0.589700 22.563000 8.834000 46.159000 # 2 
5112 1 2 0.589700 21.278000 8.905000 45.361000 # 2 
5113 1 1 -1.179400 20.308001 2.210000 39.803001 # 1 
5114 1 2 0.589700 20.766001 1.417000 40.084000 # 2 
5115 1 2 0.589700 19.540001 1.888000 39.330002 # 2 
5116 1 1 -1.179400 20.308001 9.820000 39.803001 # 1 
5117 1 2 0.589700 19.542000 10.069000 39.285999 # 2 
5118 1 2 0.589700 20.827000 9.271000 39.215000 # 2 
5119 1 1 -1.179400 20.308001 2.210000 44.407001 # 1 
5120 1 2 0.589700 20.049000 2.738000 43.653000 # 2 
5121 1 2 0.589700 20.852001 2.795000 44.934002 # 2 
5122 1 1 -1.179400 20.308001 9.820000 44.407001 # 1 
5123 1 2 0.589700 20.797998 10.573999 44.076000 # 2 
5124 1 2 0.589700 20.041000 9.344000 43.621002 # 2 
5125 1 1 -1.179400 15.036000 6.015000 42.104996 # 1 
5126 1 2 0.589700 15.562000 6.814000 42.076000 # 2 
5127 1 2 0.589700 14.510000 6.044001 41.306000 # 2 
5128 1 1 -1.179400 21.054001 6.015000 42.104996 # 1 
5129 1 2 0.589700 21.580000 5.986000 42.903999 # 2 
5130 1 2 0.589700 20.528000 5.216000 42.133999 # 2 
5131 1 1 -1.179400 13.452001 6.015000 44.426003 # 1 
5132 1 2 0.589700 13.993999 6.010000 43.637001 # 2 
5133 1 2 0.589700 13.737000 5.245000 44.917999 # 2 
5134 1 1 -1.179400 22.637999 6.015000 44.426003 # 1 
5135 1 2 0.589700 22.376999 6.789000 44.924999 # 2 
5136 1 2 0.589700 23.594999 6.033000 44.436996 # 2 
5137 1 1 -1.179400 13.452001 6.015000 39.784000 # 1 
5138 1 2 0.589700 12.495001 5.997000 39.772999 # 2 
5139 1 2 0.589700 13.712999 5.241000 39.285000 # 2 
5140 1 1 -1.179400 22.637999 6.015000 39.784000 # 1 
5141 1 2 0.589700 22.096001 6.020000 40.573002 # 2 
5142 1 2 0.589700 22.353001 6.785000 39.292000 # 2 
5143 1 1 -1.179400 16.622999 3.695000 42.104996 # 1 
5144 1 2 0.589700 16.080000 4.483000 42.110001 # 2 
5145 1 2 0.589700 16.338001 3.203000 42.875000 # 2 
5146 1 1 -1.179400 19.466999 3.695000 42.104996 # 1 
5147 1 2 0.589700 18.510000 3.683000 42.087002 # 2 
5148 1 2 0.589700 19.728001 3.195000 41.331001 # 2 
5149 1 1 -1.179400 16.622999 8.335000 42.104996 # 1 
5150 1 2 0.589700 16.362000 8.835000 42.878998 # 2 
5151 1 2 0.589700 17.580000 8.347000 42.122997 # 2 
5152 1 1 -1.179400 19.466999 8.335000 42.104996 # 1 
5153 1 2 0.589700 20.009998 7.547000 42.099998 # 2 
5154 1 2 0.589700 19.752001 8.827000 41.334999 # 2 
5155 1 1 -1.179400 0.000000 24.059999 33.084000 # 1 
5156 1 2 0.589700 0.029000 23.261002 33.610001 # 2 
5157 1 2 0.589700 0.799000 24.031000 32.557999 # 2 
5158 1 1 -1.179400 2.320000 24.059999 28.653000 # 1 
5159 1 2 0.589700 1.530000 24.062000 28.113001 # 2 
5160 1 2 0.589700 2.815000 23.297998 28.351000 # 2 
5161 1 1 -1.179400 9.710000 24.059999 28.653000 # 1 
5162 1 2 0.589700 9.211000 23.290001 28.381001 # 2 
5163 1 2 0.589700 9.692000 24.032000 29.609001 # 2 
5164 1 1 -1.179400 6.015000 15.036000 36.090000 # 1 
5165 1 2 0.589700 5.986000 14.510000 35.291000 # 2 
5166 1 2 0.589700 5.216000 15.562000 36.061001 # 2 
5167 1 1 -1.179400 3.695000 19.466999 36.090000 # 1 
5168 1 2 0.589700 4.485000 20.007000 36.091999 # 2 
5169 1 2 0.589700 3.200000 19.768999 35.327999 # 2 
5170 1 1 -1.179400 8.335000 19.466999 36.090000 # 1 
5171 1 2 0.589700 8.834000 19.739000 35.320000 # 2 
5172 1 2 0.589700 8.353000 18.511000 36.062000 # 2 
5173 1 1 -1.179400 0.000000 12.030000 45.114002 # 1 
5174 1 2 0.589700 0.029000 11.231001 45.639999 # 2 
5175 1 2 0.589700 0.799000 12.000999 44.587997 # 2 
5176 1 1 -1.179400 2.320000 12.030000 40.682999 # 1 
5177 1 2 0.589700 1.530000 12.032000 40.142998 # 2 
5178 1 2 0.589700 2.815000 11.268000 40.380997 # 2 
5179 1 1 -1.179400 9.710000 12.030000 40.682999 # 1 
5180 1 2 0.589700 9.211000 11.260000 40.410999 # 2 
5181 1 2 0.589700 9.692000 12.002000 41.639000 # 2 
5182 1 1 -1.179400 0.000000 21.738998 37.512001 # 1 
5183 1 2 0.589700 0.782000 21.259998 37.785000 # 2 
5184 1 2 0.589700 0.002000 22.528999 38.052002 # 2 
5185 1 1 -1.179400 0.000000 21.738998 46.697998 # 1 
5186 1 2 0.589700 0.786000 21.256001 46.441998 # 2 
5187 1 2 0.589700 0.014000 21.730001 47.654999 # 2 
5188 1 1 -1.179400 6.015000 21.054001 36.090000 # 1 
5189 1 2 0.589700 6.044001 21.580000 36.889000 # 2 
5190 1 2 0.589700 6.814000 20.528000 36.118999 # 2 
5191 1 1 -1.179400 6.015000 13.452001 38.410999 # 1 
5192 1 2 0.589700 5.233000 13.725000 38.889999 # 2 
5193 1 2 0.589700 6.013000 13.992000 37.620998 # 2 
5194 1 1 -1.179400 6.015000 22.637999 38.410999 # 1 
5195 1 2 0.589700 5.229000 22.382000 38.894001 # 2 
5196 1 2 0.589700 6.001000 23.594999 38.419003 # 2 
5197 1 1 -1.179400 6.015000 13.452001 45.798996 # 1 
5198 1 2 0.589700 6.801000 13.708000 45.316002 # 2 
5199 1 2 0.589700 6.029000 12.495001 45.790001 # 2 
5200 1 1 -1.179400 6.015000 22.637999 45.798996 # 1 
5201 1 2 0.589700 6.017000 22.098000 46.588997 # 2 
5202 1 2 0.589700 6.797000 22.365000 45.320000 # 2 
5203 1 1 -1.179400 3.695000 16.622999 36.090000 # 1 
5204 1 2 0.589700 3.196000 16.351000 36.860001 # 2 
5205 1 2 0.589700 3.677000 17.579000 36.118000 # 2 
5206 1 1 -1.179400 2.320000 12.030000 43.526997 # 1 
5207 1 2 0.589700 2.819000 12.799999 43.799000 # 2 
5208 1 2 0.589700 2.338000 12.058001 42.570999 # 2 
5209 1 1 -1.179400 2.263000 15.743000 38.299999 # 1 
5210 1 2 0.589700 2.781000 15.155000 38.848999 # 2 
5211 1 2 0.589700 1.497000 15.226001 38.050999 # 2 
5212 1 1 -1.179400 2.263000 15.743000 45.910000 # 1 
5213 1 2 0.589700 2.721000 16.024000 46.702999 # 2 
5214 1 2 0.589700 1.495000 15.270000 46.231998 # 2 
5215 1 1 -1.179400 2.263000 20.347002 38.299999 # 1 
5216 1 2 0.589700 1.995000 19.561001 38.776001 # 2 
5217 1 2 0.589700 2.753000 20.016001 37.546001 # 2 
5218 1 1 -1.179400 2.263000 20.347002 45.910000 # 1 
5219 1 2 0.589700 2.807000 20.874001 45.324997 # 2 
5220 1 2 0.589700 2.004000 19.593000 45.382000 # 2 
5221 1 1 -1.179400 3.752000 14.240000 39.803001 # 1 
5222 1 2 0.589700 4.019000 14.716001 40.588997 # 2 
5223 1 2 0.589700 3.262000 13.486000 40.134003 # 2 
5224 1 1 -1.179400 3.752000 21.849998 39.803001 # 1 
5225 1 2 0.589700 4.011000 21.322001 40.556999 # 2 
5226 1 2 0.589700 3.208000 21.264999 39.276001 # 2 
5227 1 1 -1.179400 3.752000 14.240000 44.407001 # 1 
5228 1 2 0.589700 4.518000 13.990999 44.924004 # 2 
5229 1 2 0.589700 3.234000 14.789000 44.994999 # 2 
5230 1 1 -1.179400 3.752000 21.849998 44.407001 # 1 
5231 1 2 0.589700 4.520000 22.172001 44.879997 # 2 
5232 1 2 0.589700 3.294000 22.643002 44.125999 # 2 
5233 1 1 -1.179400 8.335000 16.622999 36.090000 # 1 
5234 1 2 0.589700 8.830000 16.320999 36.852001 # 2 
5235 1 2 0.589700 7.545000 16.083000 36.087997 # 2 
5236 1 1 -1.179400 9.710000 12.030000 43.526997 # 1 
5237 1 2 0.589700 9.215000 12.792000 43.828999 # 2 
5238 1 2 0.589700 10.500000 12.028000 44.067001 # 2 
5239 1 1 -1.179400 9.767000 15.743000 38.299999 # 1 
5240 1 2 0.589700 10.025999 16.497000 38.828003 # 2 
5241 1 2 0.589700 9.223000 15.216000 38.884998 # 2 
5242 1 1 -1.179400 9.767000 15.743000 45.910000 # 1 
5243 1 2 0.589700 9.277000 16.074001 46.664001 # 2 
5244 1 2 0.589700 10.035000 16.528999 45.433998 # 2 
5245 1 1 -1.179400 9.767000 20.347002 38.299999 # 1 
5246 1 2 0.589700 10.535000 20.820000 37.978001 # 2 
5247 1 2 0.589700 9.309000 20.066002 37.507000 # 2 
5248 1 1 -1.179400 9.767000 20.347002 45.910000 # 1 
5249 1 2 0.589700 10.533000 20.864000 46.159000 # 2 
5250 1 2 0.589700 9.248000 20.934999 45.361000 # 2 
5251 1 1 -1.179400 8.278000 14.240000 39.803001 # 1 
5252 1 2 0.589700 8.736000 13.447000 40.084000 # 2 
5253 1 2 0.589700 7.510000 13.918000 39.330002 # 2 
5254 1 1 -1.179400 8.278000 21.849998 39.803001 # 1 
5255 1 2 0.589700 7.512000 22.099001 39.285999 # 2 
5256 1 2 0.589700 8.797000 21.301001 39.215000 # 2 
5257 1 1 -1.179400 8.278000 14.240000 44.407001 # 1 
5258 1 2 0.589700 8.019000 14.768000 43.653000 # 2 
5259 1 2 0.589700 8.822000 14.825000 44.934002 # 2 
5260 1 1 -1.179400 8.278000 21.849998 44.407001 # 1 
5261 1 2 0.589700 8.768000 22.604000 44.076000 # 2 
5262 1 2 0.589700 8.011000 21.373999 43.621002 # 2 
5263 1 1 -1.179400 3.006000 18.045000 42.104996 # 1 
5264 1 2 0.589700 3.532000 18.844000 42.076000 # 2 
5265 1 2 0.589700 2.480000 18.073999 41.306000 # 2 
5266 1 1 -1.179400 9.024000 18.045000 42.104996 # 1 
5267 1 2 0.589700 9.550000 18.015999 42.903999 # 2 
5268 1 2 0.589700 8.498000 17.246000 42.133999 # 2 
5269 1 1 -1.179400 1.422000 18.045000 44.426003 # 1 
5270 1 2 0.589700 1.964000 18.040001 43.637001 # 2 
5271 1 2 0.589700 1.707000 17.275000 44.917999 # 2 
5272 1 1 -1.179400 10.608000 18.045000 44.426003 # 1 
5273 1 2 0.589700 10.347000 18.819000 44.924999 # 2 
5274 1 2 0.589700 11.565000 18.063000 44.436996 # 2 
5275 1 1 -1.179400 1.422000 18.045000 39.784000 # 1 
5276 1 2 0.589700 0.465000 18.027000 39.772999 # 2 
5277 1 2 0.589700 1.683000 17.271000 39.285000 # 2 
5278 1 1 -1.179400 10.608000 18.045000 39.784000 # 1 
5279 1 2 0.589700 10.066000 18.049999 40.573002 # 2 
5280 1 2 0.589700 10.323000 18.815001 39.292000 # 2 
5281 1 1 -1.179400 4.593000 15.725000 42.104996 # 1 
5282 1 2 0.589700 4.050000 16.513000 42.110001 # 2 
5283 1 2 0.589700 4.308000 15.233001 42.875000 # 2 
5284 1 1 -1.179400 7.437000 15.725000 42.104996 # 1 
5285 1 2 0.589700 6.480000 15.713000 42.087002 # 2 
5286 1 2 0.589700 7.698000 15.225000 41.331001 # 2 
5287 1 1 -1.179400 4.593000 20.365000 42.104996 # 1 
5288 1 2 0.589700 4.332000 20.865000 42.878998 # 2 
5289 1 2 0.589700 5.550000 20.376999 42.122997 # 2 
5290 1 1 -1.179400 7.437000 20.365000 42.104996 # 1 
5291 1 2 0.589700 7.980000 19.577000 42.099998 # 2 
5292 1 2 0.589700 7.722000 20.857000 41.334999 # 2 
5293 1 1 -1.179400 24.059999 12.030000 27.066000 # 1 
5294 1 2 0.589700 23.261002 12.059000 27.592001 # 2 
5295 1 2 0.589700 24.031000 12.829000 26.540001 # 2 
5296 1 1 -1.179400 24.059999 14.351000 25.481998 # 1 
5297 1 2 0.589700 23.274000 14.834000 25.738001 # 2 
5298 1 2 0.589700 24.046000 14.358999 24.525002 # 2 
5299 1 1 -1.179400 24.059999 14.351000 34.667999 # 1 
5300 1 2 0.589700 23.278000 14.830000 34.395000 # 2 
5301 1 2 0.589700 24.058001 13.561000 34.128002 # 2 
5302 1 1 -1.179400 12.030000 24.059999 33.084000 # 1 
5303 1 2 0.589700 12.059000 23.261002 33.610001 # 2 
5304 1 2 0.589700 12.829000 24.031000 32.557999 # 2 
5305 1 1 -1.179400 14.349999 24.059999 28.653000 # 1 
5306 1 2 0.589700 13.559999 24.062000 28.113001 # 2 
5307 1 2 0.589700 14.845000 23.297998 28.351000 # 2 
5308 1 1 -1.179400 21.740000 24.059999 28.653000 # 1 
5309 1 2 0.589700 21.240999 23.290001 28.381001 # 2 
5310 1 2 0.589700 21.722000 24.032000 29.609001 # 2 
5311 1 1 -1.179400 18.045000 15.036000 36.090000 # 1 
5312 1 2 0.589700 18.015999 14.510000 35.291000 # 2 
5313 1 2 0.589700 17.246000 15.562000 36.061001 # 2 
5314 1 1 -1.179400 15.725000 19.466999 36.090000 # 1 
5315 1 2 0.589700 16.514999 20.007000 36.091999 # 2 
5316 1 2 0.589700 15.230000 19.768999 35.327999 # 2 
5317 1 1 -1.179400 20.365000 19.466999 36.090000 # 1 
5318 1 2 0.589700 20.864000 19.739000 35.320000 # 2 
5319 1 2 0.589700 20.382999 18.511000 36.062000 # 2 
5320 1 1 -1.179400 12.030000 12.030000 45.114002 # 1 
5321 1 2 0.589700 12.059000 11.231001 45.639999 # 2 
5322 1 2 0.589700 12.829000 12.000999 44.587997 # 2 
5323 1 1 -1.179400 14.349999 12.030000 40.682999 # 1 
5324 1 2 0.589700 13.559999 12.032000 40.142998 # 2 
5325 1 2 0.589700 14.845000 11.268000 40.380997 # 2 
5326 1 1 -1.179400 21.740000 12.030000 40.682999 # 1 
5327 1 2 0.589700 21.240999 11.260000 40.410999 # 2 
5328 1 2 0.589700 21.722000 12.002000 41.639000 # 2 
5329 1 1 -1.179400 12.030000 12.030000 39.096001 # 1 
5330 1 2 0.589700 11.231001 12.059000 39.621998 # 2 
5331 1 2 0.589700 12.000999 12.829000 38.570000 # 2 
5332 1 1 -1.179400 12.030000 14.351000 37.512001 # 1 
5333 1 2 0.589700 11.244000 14.834000 37.767998 # 2 
5334 1 2 0.589700 12.016000 14.358999 36.555000 # 2 
5335 1 1 -1.179400 12.030000 14.351000 46.697998 # 1 
5336 1 2 0.589700 11.247999 14.830000 46.424999 # 2 
5337 1 2 0.589700 12.028000 13.561000 46.157997 # 2 
5338 1 1 -1.179400 12.030000 21.738998 37.512001 # 1 
5339 1 2 0.589700 12.812000 21.259998 37.785000 # 2 
5340 1 2 0.589700 12.032000 22.528999 38.052002 # 2 
5341 1 1 -1.179400 12.030000 21.738998 46.697998 # 1 
5342 1 2 0.589700 12.816000 21.256001 46.441998 # 2 
5343 1 2 0.589700 12.044000 21.730001 47.654999 # 2 
5344 1 1 -1.179400 18.045000 21.054001 36.090000 # 1 
5345 1 2 0.589700 18.073999 21.580000 36.889000 # 2 
5346 1 2 0.589700 18.844000 20.528000 36.118999 # 2 
5347 1 1 -1.179400 18.045000 13.452001 38.410999 # 1 
5348 1 2 0.589700 17.263000 13.725000 38.889999 # 2 
5349 1 2 0.589700 18.042999 13.992000 37.620998 # 2 
5350 1 1 -1.179400 18.045000 22.637999 38.410999 # 1 
5351 1 2 0.589700 17.259001 22.382000 38.894001 # 2 
5352 1 2 0.589700 18.031000 23.594999 38.419003 # 2 
5353 1 1 -1.179400 18.045000 13.452001 45.798996 # 1 
5354 1 2 0.589700 18.831001 13.708000 45.316002 # 2 
5355 1 2 0.589700 18.059000 12.495001 45.790001 # 2 
5356 1 1 -1.179400 18.045000 22.637999 45.798996 # 1 
5357 1 2 0.589700 18.047001 22.098000 46.588997 # 2 
5358 1 2 0.589700 18.827000 22.365000 45.320000 # 2 
5359 1 1 -1.179400 15.725000 16.622999 36.090000 # 1 
5360 1 2 0.589700 15.226001 16.351000 36.860001 # 2 
5361 1 2 0.589700 15.707001 17.579000 36.118000 # 2 
5362 1 1 -1.179400 14.349999 12.030000 43.526997 # 1 
5363 1 2 0.589700 14.849000 12.799999 43.799000 # 2 
5364 1 2 0.589700 14.368000 12.058001 42.570999 # 2 
5365 1 1 -1.179400 14.292999 15.743000 38.299999 # 1 
5366 1 2 0.589700 14.811000 15.155000 38.848999 # 2 
5367 1 2 0.589700 13.527000 15.226001 38.050999 # 2 
5368 1 1 -1.179400 14.292999 15.743000 45.910000 # 1 
5369 1 2 0.589700 14.751000 16.024000 46.702999 # 2 
5370 1 2 0.589700 13.525000 15.270000 46.231998 # 2 
5371 1 1 -1.179400 14.292999 20.347002 38.299999 # 1 
5372 1 2 0.589700 14.025001 19.561001 38.776001 # 2 
5373 1 2 0.589700 14.783000 20.016001 37.546001 # 2 
5374 1 1 -1.179400 14.292999 20.347002 45.910000 # 1 
5375 1 2 0.589700 14.837000 20.874001 45.324997 # 2 
5376 1 2 0.589700 14.033999 19.593000 45.382000 # 2 
5377 1 1 -1.179400 15.782000 14.240000 39.803001 # 1 
5378 1 2 0.589700 16.049000 14.716001 40.588997 # 2 
5379 1 2 0.589700 15.292000 13.486000 40.134003 # 2 
5380 1 1 -1.179400 15.782000 21.849998 39.803001 # 1 
5381 1 2 0.589700 16.041000 21.322001 40.556999 # 2 
5382 1 2 0.589700 15.238000 21.264999 39.276001 # 2 
5383 1 1 -1.179400 15.782000 14.240000 44.407001 # 1 
5384 1 2 0.589700 16.548000 13.990999 44.924004 # 2 
5385 1 2 0.589700 15.264000 14.789000 44.994999 # 2 
5386 1 1 -1.179400 15.782000 21.849998 44.407001 # 1 
5387 1 2 0.589700 16.549999 22.172001 44.879997 # 2 
5388 1 2 0.589700 15.324000 22.643002 44.125999 # 2 
5389 1 1 -1.179400 20.365000 16.622999 36.090000 # 1 
5390 1 2 0.589700 20.860001 16.320999 36.852001 # 2 
5391 1 2 0.589700 19.575001 16.083000 36.087997 # 2 
5392 1 1 -1.179400 21.740000 12.030000 43.526997 # 1 
5393 1 2 0.589700 21.245001 12.792000 43.828999 # 2 
5394 1 2 0.589700 22.530001 12.028000 44.067001 # 2 
5395 1 1 -1.179400 21.797001 15.743000 38.299999 # 1 
5396 1 2 0.589700 22.056000 16.497000 38.828003 # 2 
5397 1 2 0.589700 21.252998 15.216000 38.884998 # 2 
5398 1 1 -1.179400 21.797001 15.743000 45.910000 # 1 
5399 1 2 0.589700 21.307001 16.074001 46.664001 # 2 
5400 1 2 0.589700 22.065001 16.528999 45.433998 # 2 
5401 1 1 -1.179400 21.797001 20.347002 38.299999 # 1 
5402 1 2 0.589700 22.565001 20.820000 37.978001 # 2 
5403 1 2 0.589700 21.338999 20.066002 37.507000 # 2 
5404 1 1 -1.179400 21.797001 20.347002 45.910000 # 1 
5405 1 2 0.589700 22.563000 20.864000 46.159000 # 2 
5406 1 2 0.589700 21.278000 20.934999 45.361000 # 2 
5407 1 1 -1.179400 20.308001 14.240000 39.803001 # 1 
5408 1 2 0.589700 20.766001 13.447000 40.084000 # 2 
5409 1 2 0.589700 19.540001 13.918000 39.330002 # 2 
5410 1 1 -1.179400 20.308001 21.849998 39.803001 # 1 
5411 1 2 0.589700 19.542000 22.099001 39.285999 # 2 
5412 1 2 0.589700 20.827000 21.301001 39.215000 # 2 
5413 1 1 -1.179400 20.308001 14.240000 44.407001 # 1 
5414 1 2 0.589700 20.049000 14.768000 43.653000 # 2 
5415 1 2 0.589700 20.852001 14.825000 44.934002 # 2 
5416 1 1 -1.179400 20.308001 21.849998 44.407001 # 1 
5417 1 2 0.589700 20.797998 22.604000 44.076000 # 2 
5418 1 2 0.589700 20.041000 21.373999 43.621002 # 2 
5419 1 1 -1.179400 15.036000 18.045000 42.104996 # 1 
5420 1 2 0.589700 15.562000 18.844000 42.076000 # 2 
5421 1 2 0.589700 14.510000 18.073999 41.306000 # 2 
5422 1 1 -1.179400 21.054001 18.045000 42.104996 # 1 
5423 1 2 0.589700 21.580000 18.015999 42.903999 # 2 
5424 1 2 0.589700 20.528000 17.246000 42.133999 # 2 
5425 1 1 -1.179400 13.452001 18.045000 44.426003 # 1 
5426 1 2 0.589700 13.993999 18.040001 43.637001 # 2 
5427 1 2 0.589700 13.737000 17.275000 44.917999 # 2 
5428 1 1 -1.179400 22.637999 18.045000 44.426003 # 1 
5429 1 2 0.589700 22.376999 18.819000 44.924999 # 2 
5430 1 2 0.589700 23.594999 18.063000 44.436996 # 2 
5431 1 1 -1.179400 13.452001 18.045000 39.784000 # 1 
5432 1 2 0.589700 12.495001 18.027000 39.772999 # 2 
5433 1 2 0.589700 13.712999 17.271000 39.285000 # 2 
5434 1 1 -1.179400 22.637999 18.045000 39.784000 # 1 
5435 1 2 0.589700 22.096001 18.049999 40.573002 # 2 
5436 1 2 0.589700 22.353001 18.815001 39.292000 # 2 
5437 1 1 -1.179400 16.622999 15.725000 42.104996 # 1 
5438 1 2 0.589700 16.080000 16.513000 42.110001 # 2 
5439 1 2 0.589700 16.338001 15.233001 42.875000 # 2 
5440 1 1 -1.179400 19.466999 15.725000 42.104996 # 1 
5441 1 2 0.589700 18.510000 15.713000 42.087002 # 2 
5442 1 2 0.589700 19.728001 15.225000 41.331001 # 2 
5443 1 1 -1.179400 16.622999 20.365000 42.104996 # 1 
5444 1 2 0.589700 16.362000 20.865000 42.878998 # 2 
5445 1 2 0.589700 17.580000 20.376999 42.122997 # 2 
5446 1 1 -1.179400 19.466999 20.365000 42.104996 # 1 
5447 1 2 0.589700 20.009998 19.577000 42.099998 # 2 
5448 1 2 0.589700 19.752001 20.857000 41.334999 # 2 
5449 1 1 -1.179400 6.015000 3.006000 48.119999 # 1 
5450 1 2 0.589700 5.986000 2.480000 47.320999 # 2 
5451 1 2 0.589700 5.216000 3.532000 48.091003 # 2 
5452 1 1 -1.179400 3.695000 7.437000 48.119999 # 1 
5453 1 2 0.589700 4.485000 7.977000 48.122002 # 2 
5454 1 2 0.589700 3.200000 7.739000 47.357998 # 2 
5455 1 1 -1.179400 8.335000 7.437000 48.119999 # 1 
5456 1 2 0.589700 8.834000 7.709000 47.350002 # 2 
5457 1 2 0.589700 8.353000 6.481000 48.091999 # 2 
5458 1 1 -1.179400 24.059999 0.000000 39.096001 # 1 
5459 1 2 0.589700 23.261002 0.029000 39.621998 # 2 
5460 1 2 0.589700 24.031000 0.799000 38.570000 # 2 
5461 1 1 -1.179400 24.059999 2.321000 37.512001 # 1 
5462 1 2 0.589700 23.274000 2.804000 37.767998 # 2 
5463 1 2 0.589700 24.046000 2.329000 36.555000 # 2 
5464 1 1 -1.179400 24.059999 2.321000 46.697998 # 1 
5465 1 2 0.589700 23.278000 2.800000 46.424999 # 2 
5466 1 2 0.589700 24.058001 1.531000 46.157997 # 2 
5467 1 1 -1.179400 18.045000 3.006000 48.119999 # 1 
5468 1 2 0.589700 18.015999 2.480000 47.320999 # 2 
5469 1 2 0.589700 17.246000 3.532000 48.091003 # 2 
5470 1 1 -1.179400 15.725000 7.437000 48.119999 # 1 
5471 1 2 0.589700 16.514999 7.977000 48.122002 # 2 
5472 1 2 0.589700 15.230000 7.739000 47.357998 # 2 
5473 1 1 -1.179400 20.365000 7.437000 48.119999 # 1 
5474 1 2 0.589700 20.864000 7.709000 47.350002 # 2 
5475 1 2 0.589700 20.382999 6.481000 48.091999 # 2 
5476 1 1 -1.179400 0.000000 24.059999 45.114002 # 1 
5477 1 2 0.589700 0.029000 23.261002 45.639999 # 2 
5478 1 2 0.589700 0.799000 24.031000 44.587997 # 2 
5479 1 1 -1.179400 2.320000 24.059999 40.682999 # 1 
5480 1 2 0.589700 1.530000 24.062000 40.142998 # 2 
5481 1 2 0.589700 2.815000 23.297998 40.380997 # 2 
5482 1 1 -1.179400 9.710000 24.059999 40.682999 # 1 
5483 1 2 0.589700 9.211000 23.290001 40.410999 # 2 
5484 1 2 0.589700 9.692000 24.032000 41.639000 # 2 
5485 1 1 -1.179400 6.015000 15.036000 48.119999 # 1 
5486 1 2 0.589700 5.986000 14.510000 47.320999 # 2 
5487 1 2 0.589700 5.216000 15.562000 48.091003 # 2 
5488 1 1 -1.179400 3.695000 19.466999 48.119999 # 1 
5489 1 2 0.589700 4.485000 20.007000 48.122002 # 2 
5490 1 2 0.589700 3.200000 19.768999 47.357998 # 2 
5491 1 1 -1.179400 8.335000 19.466999 48.119999 # 1 
5492 1 2 0.589700 8.834000 19.739000 47.350002 # 2 
5493 1 2 0.589700 8.353000 18.511000 48.091999 # 2 
5494 1 1 -1.179400 24.059999 12.030000 39.096001 # 1 
5495 1 2 0.589700 23.261002 12.059000 39.621998 # 2 
5496 1 2 0.589700 24.031000 12.829000 38.570000 # 2 
5497 1 1 -1.179400 24.059999 14.351000 37.512001 # 1 
5498 1 2 0.589700 23.274000 14.834000 37.767998 # 2 
5499 1 2 0.589700 24.046000 14.358999 36.555000 # 2 
5500 1 1 -1.179400 24.059999 14.351000 46.697998 # 1 
5501 1 2 0.589700 23.278000 14.830000 46.424999 # 2 
5502 1 2 0.589700 24.058001 13.561000 46.157997 # 2 
5503 1 1 -1.179400 12.030000 24.059999 45.114002 # 1 
5504 1 2 0.589700 12.059000 23.261002 45.639999 # 2 
5505 1 2 0.589700 12.829000 24.031000 44.587997 # 2 
5506 1 1 -1.179400 14.349999 24.059999 40.682999 # 1 
5507 1 2 0.589700 13.559999 24.062000 40.142998 # 2 
5508 1 2 0.589700 14.845000 23.297998 40.380997 # 2 
5509 1 1 -1.179400 21.740000 24.059999 40.682999 # 1 
5510 1 2 0.589700 21.240999 23.290001 40.410999 # 2 
5511 1 2 0.589700 21.722000 24.032000 41.639000 # 2 
5512 1 1 -1.179400 18.045000 15.036000 48.119999 # 1 
5513 1 2 0.589700 18.015999 14.510000 47.320999 # 2 
5514 1 2 0.589700 17.246000 15.562000 48.091003 # 2 
5515 1 1 -1.179400 15.725000 19.466999 48.119999 # 1 
5516 1 2 0.589700 16.514999 20.007000 48.122002 # 2 
5517 1 2 0.589700 15.230000 19.768999 47.357998 # 2 
5518 1 1 -1.179400 20.365000 19.466999 48.119999 # 1 
5519 1 2 0.589700 20.864000 19.739000 47.350002 # 2 
5520 1 2 0.589700 20.382999 18.511000 48.091999 # 2 
5521 1 1 -1.179400 36.090000 0.000000 27.066000 # 1 
5522 1 2 0.589700 35.291000 0.029000 27.592001 # 2 
5523 1 2 0.589700 36.061001 0.799000 26.540001 # 2 
5524 1 1 -1.179400 36.090000 2.321000 25.481998 # 1 
5525 1 2 0.589700 35.304001 2.804000 25.738001 # 2 
5526 1 2 0.589700 36.076000 2.329000 24.525002 # 2 
5527 1 1 -1.179400 36.090000 2.321000 34.667999 # 1 
5528 1 2 0.589700 35.308002 2.800000 34.395000 # 2 
5529 1 2 0.589700 36.087997 1.531000 34.128002 # 2 
5530 1 1 -1.179400 36.090000 9.709000 25.481998 # 1 
5531 1 2 0.589700 36.872002 9.230000 25.755001 # 2 
5532 1 2 0.589700 36.091999 10.499000 26.021999 # 2 
5533 1 1 -1.179400 36.090000 9.709000 34.667999 # 1 
5534 1 2 0.589700 36.875999 9.226000 34.411999 # 2 
5535 1 2 0.589700 36.104000 9.700000 35.625000 # 2 
5536 1 1 -1.179400 42.104996 9.024000 24.059999 # 1 
5537 1 2 0.589700 42.133999 9.550000 24.858999 # 2 
5538 1 2 0.589700 42.903999 8.498000 24.089001 # 2 
5539 1 1 -1.179400 42.104996 1.422000 26.380999 # 1 
5540 1 2 0.589700 41.322998 1.695000 26.860001 # 2 
5541 1 2 0.589700 42.103001 1.962000 25.591000 # 2 
5542 1 1 -1.179400 42.104996 10.608000 26.380999 # 1 
5543 1 2 0.589700 41.319000 10.352000 26.863998 # 2 
5544 1 2 0.589700 42.090996 11.565000 26.389000 # 2 
5545 1 1 -1.179400 42.104996 1.422000 33.769001 # 1 
5546 1 2 0.589700 42.891003 1.678000 33.285999 # 2 
5547 1 2 0.589700 42.118996 0.465000 33.759998 # 2 
5548 1 1 -1.179400 42.104996 10.608000 33.769001 # 1 
5549 1 2 0.589700 42.107002 10.067999 34.558998 # 2 
5550 1 2 0.589700 42.887001 10.334999 33.290001 # 2 
5551 1 1 -1.179400 39.785000 4.593000 24.059999 # 1 
5552 1 2 0.589700 39.285999 4.321000 24.830000 # 2 
5553 1 2 0.589700 39.767002 5.549000 24.087999 # 2 
5554 1 1 -1.179400 38.410000 0.000000 31.497000 # 1 
5555 1 2 0.589700 38.909000 0.770000 31.768999 # 2 
5556 1 2 0.589700 38.427998 0.028000 30.541000 # 2 
5557 1 1 -1.179400 38.353001 3.713000 26.270000 # 1 
5558 1 2 0.589700 38.870998 3.125000 26.819000 # 2 
5559 1 2 0.589700 37.586998 3.196000 26.021000 # 2 
5560 1 1 -1.179400 38.353001 3.713000 33.880001 # 1 
5561 1 2 0.589700 38.811001 3.994000 34.673000 # 2 
5562 1 2 0.589700 37.584999 3.240000 34.202000 # 2 
5563 1 1 -1.179400 38.353001 8.317000 26.270000 # 1 
5564 1 2 0.589700 38.084999 7.531000 26.746002 # 2 
5565 1 2 0.589700 38.842999 7.986000 25.515999 # 2 
5566 1 1 -1.179400 38.353001 8.317000 33.880001 # 1 
5567 1 2 0.589700 38.896999 8.844000 33.294998 # 2 
5568 1 2 0.589700 38.094002 7.563000 33.352001 # 2 
5569 1 1 -1.179400 39.841999 2.210000 27.773001 # 1 
5570 1 2 0.589700 40.109001 2.686000 28.559000 # 2 
5571 1 2 0.589700 39.352001 1.456000 28.104000 # 2 
5572 1 1 -1.179400 39.841999 9.820000 27.773001 # 1 
5573 1 2 0.589700 40.100998 9.292000 28.527000 # 2 
5574 1 2 0.589700 39.298000 9.235000 27.246000 # 2 
5575 1 1 -1.179400 39.841999 2.210000 32.376999 # 1 
5576 1 2 0.589700 40.608002 1.961000 32.893997 # 2 
5577 1 2 0.589700 39.324001 2.759000 32.965000 # 2 
5578 1 1 -1.179400 39.841999 9.820000 32.376999 # 1 
5579 1 2 0.589700 40.610001 10.142000 32.850002 # 2 
5580 1 2 0.589700 39.383999 10.613001 32.096001 # 2 
5581 1 1 -1.179400 44.425003 4.593000 24.059999 # 1 
5582 1 2 0.589700 44.920002 4.291000 24.821999 # 2 
5583 1 2 0.589700 43.635002 4.053000 24.058001 # 2 
5584 1 1 -1.179400 45.799999 0.000000 31.497000 # 1 
5585 1 2 0.589700 45.305000 0.762000 31.799000 # 2 
5586 1 2 0.589700 46.590000 -0.002000 32.037003 # 2 
5587 1 1 -1.179400 45.857002 3.713000 26.270000 # 1 
5588 1 2 0.589700 46.115997 4.467000 26.798000 # 2 
5589 1 2 0.589700 45.313000 3.186000 26.855000 # 2 
5590 1 1 -1.179400 45.857002 3.713000 33.880001 # 1 
5591 1 2 0.589700 45.367004 4.044000 34.634003 # 2 
5592 1 2 0.589700 46.125000 4.499000 33.403999 # 2 
5593 1 1 -1.179400 45.857002 8.317000 26.270000 # 1 
5594 1 2 0.589700 46.625000 8.790000 25.948000 # 2 
5595 1 2 0.589700 45.398998 8.036000 25.476999 # 2 
5596 1 1 -1.179400 45.857002 8.317000 33.880001 # 1 
5597 1 2 0.589700 46.623001 8.834000 34.128998 # 2 
5598 1 2 0.589700 45.338001 8.905000 33.331001 # 2 
5599 1 1 -1.179400 44.368000 2.210000 27.773001 # 1 
5600 1 2 0.589700 44.826004 1.417000 28.053999 # 2 
5601 1 2 0.589700 43.600002 1.888000 27.299999 # 2 
5602 1 1 -1.179400 44.368000 9.820000 27.773001 # 1 
5603 1 2 0.589700 43.601997 10.069000 27.256001 # 2 
5604 1 2 0.589700 44.887001 9.271000 27.184999 # 2 
5605 1 1 -1.179400 44.368000 2.210000 32.376999 # 1 
5606 1 2 0.589700 44.109001 2.738000 31.623001 # 2 
5607 1 2 0.589700 44.911999 2.795000 32.903999 # 2 
5608 1 1 -1.179400 44.368000 9.820000 32.376999 # 1 
5609 1 2 0.589700 44.857998 10.573999 32.046001 # 2 
5610 1 2 0.589700 44.100998 9.344000 31.591000 # 2 
5611 1 1 -1.179400 39.096001 6.015000 30.074999 # 1 
5612 1 2 0.589700 39.621998 6.814000 30.046001 # 2 
5613 1 2 0.589700 38.570000 6.044001 29.275999 # 2 
5614 1 1 -1.179400 45.114002 6.015000 30.074999 # 1 
5615 1 2 0.589700 45.639999 5.986000 30.874001 # 2 
5616 1 2 0.589700 44.587997 5.216000 30.104000 # 2 
5617 1 1 -1.179400 37.512001 6.015000 32.396000 # 1 
5618 1 2 0.589700 38.054001 6.010000 31.607000 # 2 
5619 1 2 0.589700 37.797001 5.245000 32.888000 # 2 
5620 1 1 -1.179400 46.697998 6.015000 32.396000 # 1 
5621 1 2 0.589700 46.437000 6.789000 32.895000 # 2 
5622 1 2 0.589700 47.654999 6.033000 32.407001 # 2 
5623 1 1 -1.179400 37.512001 6.015000 27.754000 # 1 
5624 1 2 0.589700 36.555000 5.997000 27.743000 # 2 
5625 1 2 0.589700 37.772999 5.241000 27.255001 # 2 
5626 1 1 -1.179400 46.697998 6.015000 27.754000 # 1 
5627 1 2 0.589700 46.156002 6.020000 28.542999 # 2 
5628 1 2 0.589700 46.413002 6.785000 27.262001 # 2 
5629 1 1 -1.179400 40.682999 3.695000 30.074999 # 1 
5630 1 2 0.589700 40.139999 4.483000 30.079998 # 2 
5631 1 2 0.589700 40.398003 3.203000 30.845001 # 2 
5632 1 1 -1.179400 43.526997 3.695000 30.074999 # 1 
5633 1 2 0.589700 42.570000 3.683000 30.057001 # 2 
5634 1 2 0.589700 43.787998 3.195000 29.300999 # 2 
5635 1 1 -1.179400 40.682999 8.335000 30.074999 # 1 
5636 1 2 0.589700 40.422001 8.835000 30.848999 # 2 
5637 1 2 0.589700 41.639999 8.347000 30.093000 # 2 
5638 1 1 -1.179400 43.526997 8.335000 30.074999 # 1 
5639 1 2 0.589700 44.070000 7.547000 30.070000 # 2 
5640 1 2 0.589700 43.811996 8.827000 29.305000 # 2 
5641 1 1 -1.179400 24.059999 12.030000 33.084000 # 1 
5642 1 2 0.589700 24.089001 11.231001 33.610001 # 2 
5643 1 2 0.589700 24.858999 12.000999 32.557999 # 2 
5644 1 1 -1.179400 26.380001 12.030000 28.653000 # 1 
5645 1 2 0.589700 25.590000 12.032000 28.113001 # 2 
5646 1 2 0.589700 26.875000 11.268000 28.351000 # 2 
5647 1 1 -1.179400 33.770000 12.030000 28.653000 # 1 
5648 1 2 0.589700 33.271000 11.260000 28.381001 # 2 
5649 1 2 0.589700 33.751999 12.002000 29.609001 # 2 
5650 1 1 -1.179400 24.059999 21.738998 25.481998 # 1 
5651 1 2 0.589700 24.841999 21.259998 25.755001 # 2 
5652 1 2 0.589700 24.062000 22.528999 26.021999 # 2 
5653 1 1 -1.179400 24.059999 21.738998 34.667999 # 1 
5654 1 2 0.589700 24.846001 21.256001 34.411999 # 2 
5655 1 2 0.589700 24.073999 21.730001 35.625000 # 2 
5656 1 1 -1.179400 30.074999 21.054001 24.059999 # 1 
5657 1 2 0.589700 30.104000 21.580000 24.858999 # 2 
5658 1 2 0.589700 30.874001 20.528000 24.089001 # 2 
5659 1 1 -1.179400 30.074999 13.452001 26.380999 # 1 
5660 1 2 0.589700 29.293001 13.725000 26.860001 # 2 
5661 1 2 0.589700 30.072998 13.992000 25.591000 # 2 
5662 1 1 -1.179400 30.074999 22.637999 26.380999 # 1 
5663 1 2 0.589700 29.289000 22.382000 26.863998 # 2 
5664 1 2 0.589700 30.060999 23.594999 26.389000 # 2 
5665 1 1 -1.179400 30.074999 13.452001 33.769001 # 1 
5666 1 2 0.589700 30.861000 13.708000 33.285999 # 2 
5667 1 2 0.589700 30.088999 12.495001 33.759998 # 2 
5668 1 1 -1.179400 30.074999 22.637999 33.769001 # 1 
5669 1 2 0.589700 30.077000 22.098000 34.558998 # 2 
5670 1 2 0.589700 30.857000 22.365000 33.290001 # 2 
5671 1 1 -1.179400 27.755001 16.622999 24.059999 # 1 
5672 1 2 0.589700 27.256001 16.351000 24.830000 # 2 
5673 1 2 0.589700 27.737000 17.579000 24.087999 # 2 
5674 1 1 -1.179400 26.380001 12.030000 31.497000 # 1 
5675 1 2 0.589700 26.879002 12.799999 31.768999 # 2 
5676 1 2 0.589700 26.398001 12.058001 30.541000 # 2 
5677 1 1 -1.179400 26.322998 15.743000 26.270000 # 1 
5678 1 2 0.589700 26.841000 15.155000 26.819000 # 2 
5679 1 2 0.589700 25.557001 15.226001 26.021000 # 2 
5680 1 1 -1.179400 26.322998 15.743000 33.880001 # 1 
5681 1 2 0.589700 26.781002 16.024000 34.673000 # 2 
5682 1 2 0.589700 25.555000 15.270000 34.202000 # 2 
5683 1 1 -1.179400 26.322998 20.347002 26.270000 # 1 
5684 1 2 0.589700 26.055000 19.561001 26.746002 # 2 
5685 1 2 0.589700 26.813000 20.016001 25.515999 # 2 
5686 1 1 -1.179400 26.322998 20.347002 33.880001 # 1 
5687 1 2 0.589700 26.867001 20.874001 33.294998 # 2 
5688 1 2 0.589700 26.063999 19.593000 33.352001 # 2 
5689 1 1 -1.179400 27.812000 14.240000 27.773001 # 1 
5690 1 2 0.589700 28.078999 14.716001 28.559000 # 2 
5691 1 2 0.589700 27.321999 13.486000 28.104000 # 2 
5692 1 1 -1.179400 27.812000 21.849998 27.773001 # 1 
5693 1 2 0.589700 28.071001 21.322001 28.527000 # 2 
5694 1 2 0.589700 27.268000 21.264999 27.246000 # 2 
5695 1 1 -1.179400 27.812000 14.240000 32.376999 # 1 
5696 1 2 0.589700 28.577999 13.990999 32.893997 # 2 
5697 1 2 0.589700 27.293999 14.789000 32.965000 # 2 
5698 1 1 -1.179400 27.812000 21.849998 32.376999 # 1 
5699 1 2 0.589700 28.580000 22.172001 32.850002 # 2 
5700 1 2 0.589700 27.354000 22.643002 32.096001 # 2 
5701 1 1 -1.179400 32.395000 16.622999 24.059999 # 1 
5702 1 2 0.589700 32.889999 16.320999 24.821999 # 2 
5703 1 2 0.589700 31.605000 16.083000 24.058001 # 2 
5704 1 1 -1.179400 33.770000 12.030000 31.497000 # 1 
5705 1 2 0.589700 33.275002 12.792000 31.799000 # 2 
5706 1 2 0.589700 34.560001 12.028000 32.037003 # 2 
5707 1 1 -1.179400 33.827000 15.743000 26.270000 # 1 
5708 1 2 0.589700 34.086002 16.497000 26.798000 # 2 
5709 1 2 0.589700 33.283001 15.216000 26.855000 # 2 
5710 1 1 -1.179400 33.827000 15.743000 33.880001 # 1 
5711 1 2 0.589700 33.336998 16.074001 34.634003 # 2 
5712 1 2 0.589700 34.094997 16.528999 33.403999 # 2 
5713 1 1 -1.179400 33.827000 20.347002 26.270000 # 1 
5714 1 2 0.589700 34.595001 20.820000 25.948000 # 2 
5715 1 2 0.589700 33.368999 20.066002 25.476999 # 2 
5716 1 1 -1.179400 33.827000 20.347002 33.880001 # 1 
5717 1 2 0.589700 34.593002 20.864000 34.128998 # 2 
5718 1 2 0.589700 33.307999 20.934999 33.331001 # 2 
5719 1 1 -1.179400 32.337997 14.240000 27.773001 # 1 
5720 1 2 0.589700 32.795998 13.447000 28.053999 # 2 
5721 1 2 0.589700 31.570000 13.918000 27.299999 # 2 
5722 1 1 -1.179400 32.337997 21.849998 27.773001 # 1 
5723 1 2 0.589700 31.572001 22.099001 27.256001 # 2 
5724 1 2 0.589700 32.857002 21.301001 27.184999 # 2 
5725 1 1 -1.179400 32.337997 14.240000 32.376999 # 1 
5726 1 2 0.589700 32.079002 14.768000 31.623001 # 2 
5727 1 2 0.589700 32.882000 14.825000 32.903999 # 2 
5728 1 1 -1.179400 32.337997 21.849998 32.376999 # 1 
5729 1 2 0.589700 32.827999 22.604000 32.046001 # 2 
5730 1 2 0.589700 32.070999 21.373999 31.591000 # 2 
5731 1 1 -1.179400 27.066000 18.045000 30.074999 # 1 
5732 1 2 0.589700 27.592001 18.844000 30.046001 # 2 
5733 1 2 0.589700 26.540001 18.073999 29.275999 # 2 
5734 1 1 -1.179400 33.084000 18.045000 30.074999 # 1 
5735 1 2 0.589700 33.610001 18.015999 30.874001 # 2 
5736 1 2 0.589700 32.557999 17.246000 30.104000 # 2 
5737 1 1 -1.179400 25.481998 18.045000 32.396000 # 1 
5738 1 2 0.589700 26.024000 18.040001 31.607000 # 2 
5739 1 2 0.589700 25.767000 17.275000 32.888000 # 2 
5740 1 1 -1.179400 34.667999 18.045000 32.396000 # 1 
5741 1 2 0.589700 34.407001 18.819000 32.895000 # 2 
5742 1 2 0.589700 35.625000 18.063000 32.407001 # 2 
5743 1 1 -1.179400 25.481998 18.045000 27.754000 # 1 
5744 1 2 0.589700 24.525002 18.027000 27.743000 # 2 
5745 1 2 0.589700 25.743000 17.271000 27.255001 # 2 
5746 1 1 -1.179400 34.667999 18.045000 27.754000 # 1 
5747 1 2 0.589700 34.125999 18.049999 28.542999 # 2 
5748 1 2 0.589700 34.382999 18.815001 27.262001 # 2 
5749 1 1 -1.179400 28.653000 15.725000 30.074999 # 1 
5750 1 2 0.589700 28.110001 16.513000 30.079998 # 2 
5751 1 2 0.589700 28.368000 15.233001 30.845001 # 2 
5752 1 1 -1.179400 31.497000 15.725000 30.074999 # 1 
5753 1 2 0.589700 30.539999 15.713000 30.057001 # 2 
5754 1 2 0.589700 31.758001 15.225000 29.300999 # 2 
5755 1 1 -1.179400 28.653000 20.365000 30.074999 # 1 
5756 1 2 0.589700 28.392000 20.865000 30.848999 # 2 
5757 1 2 0.589700 29.610001 20.376999 30.093000 # 2 
5758 1 1 -1.179400 31.497000 20.365000 30.074999 # 1 
5759 1 2 0.589700 32.040001 19.577000 30.070000 # 2 
5760 1 2 0.589700 31.782000 20.857000 29.305000 # 2 
5761 1 1 -1.179400 24.059999 9.709000 25.481998 # 1 
5762 1 2 0.589700 24.841999 9.230000 25.755001 # 2 
5763 1 2 0.589700 24.062000 10.499000 26.021999 # 2 
5764 1 1 -1.179400 24.059999 9.709000 34.667999 # 1 
5765 1 2 0.589700 24.846001 9.226000 34.411999 # 2 
5766 1 2 0.589700 24.073999 9.700000 35.625000 # 2 
5767 1 1 -1.179400 30.074999 9.024000 24.059999 # 1 
5768 1 2 0.589700 30.104000 9.550000 24.858999 # 2 
5769 1 2 0.589700 30.874001 8.498000 24.089001 # 2 
5770 1 1 -1.179400 30.074999 1.422000 26.380999 # 1 
5771 1 2 0.589700 29.293001 1.695000 26.860001 # 2 
5772 1 2 0.589700 30.072998 1.962000 25.591000 # 2 
5773 1 1 -1.179400 30.074999 10.608000 26.380999 # 1 
5774 1 2 0.589700 29.289000 10.352000 26.863998 # 2 
5775 1 2 0.589700 30.060999 11.565000 26.389000 # 2 
5776 1 1 -1.179400 30.074999 1.422000 33.769001 # 1 
5777 1 2 0.589700 30.861000 1.678000 33.285999 # 2 
5778 1 2 0.589700 30.088999 0.465000 33.759998 # 2 
5779 1 1 -1.179400 30.074999 10.608000 33.769001 # 1 
5780 1 2 0.589700 30.077000 10.067999 34.558998 # 2 
5781 1 2 0.589700 30.857000 10.334999 33.290001 # 2 
5782 1 1 -1.179400 27.755001 4.593000 24.059999 # 1 
5783 1 2 0.589700 27.256001 4.321000 24.830000 # 2 
5784 1 2 0.589700 27.737000 5.549000 24.087999 # 2 
5785 1 1 -1.179400 26.380001 0.000000 31.497000 # 1 
5786 1 2 0.589700 26.879002 0.770000 31.768999 # 2 
5787 1 2 0.589700 26.398001 0.028000 30.541000 # 2 
5788 1 1 -1.179400 26.322998 3.713000 26.270000 # 1 
5789 1 2 0.589700 26.841000 3.125000 26.819000 # 2 
5790 1 2 0.589700 25.557001 3.196000 26.021000 # 2 
5791 1 1 -1.179400 26.322998 3.713000 33.880001 # 1 
5792 1 2 0.589700 26.781002 3.994000 34.673000 # 2 
5793 1 2 0.589700 25.555000 3.240000 34.202000 # 2 
5794 1 1 -1.179400 26.322998 8.317000 26.270000 # 1 
5795 1 2 0.589700 26.055000 7.531000 26.746002 # 2 
5796 1 2 0.589700 26.813000 7.986000 25.515999 # 2 
5797 1 1 -1.179400 26.322998 8.317000 33.880001 # 1 
5798 1 2 0.589700 26.867001 8.844000 33.294998 # 2 
5799 1 2 0.589700 26.063999 7.563000 33.352001 # 2 
5800 1 1 -1.179400 27.812000 2.210000 27.773001 # 1 
5801 1 2 0.589700 28.078999 2.686000 28.559000 # 2 
5802 1 2 0.589700 27.321999 1.456000 28.104000 # 2 
5803 1 1 -1.179400 27.812000 9.820000 27.773001 # 1 
5804 1 2 0.589700 28.071001 9.292000 28.527000 # 2 
5805 1 2 0.589700 27.268000 9.235000 27.246000 # 2 
5806 1 1 -1.179400 27.812000 2.210000 32.376999 # 1 
5807 1 2 0.589700 28.577999 1.961000 32.893997 # 2 
5808 1 2 0.589700 27.293999 2.759000 32.965000 # 2 
5809 1 1 -1.179400 27.812000 9.820000 32.376999 # 1 
5810 1 2 0.589700 28.580000 10.142000 32.850002 # 2 
5811 1 2 0.589700 27.354000 10.613001 32.096001 # 2 
5812 1 1 -1.179400 32.395000 4.593000 24.059999 # 1 
5813 1 2 0.589700 32.889999 4.291000 24.821999 # 2 
5814 1 2 0.589700 31.605000 4.053000 24.058001 # 2 
5815 1 1 -1.179400 33.770000 0.000000 31.497000 # 1 
5816 1 2 0.589700 33.275002 0.762000 31.799000 # 2 
5817 1 2 0.589700 34.560001 -0.002000 32.037003 # 2 
5818 1 1 -1.179400 33.827000 3.713000 26.270000 # 1 
5819 1 2 0.589700 34.086002 4.467000 26.798000 # 2 
5820 1 2 0.589700 33.283001 3.186000 26.855000 # 2 
5821 1 1 -1.179400 33.827000 3.713000 33.880001 # 1 
5822 1 2 0.589700 33.336998 4.044000 34.634003 # 2 
5823 1 2 0.589700 34.094997 4.499000 33.403999 # 2 
5824 1 1 -1.179400 33.827000 8.317000 26.270000 # 1 
5825 1 2 0.589700 34.595001 8.790000 25.948000 # 2 
5826 1 2 0.589700 33.368999 8.036000 25.476999 # 2 
5827 1 1 -1.179400 33.827000 8.317000 33.880001 # 1 
5828 1 2 0.589700 34.593002 8.834000 34.128998 # 2 
5829 1 2 0.589700 33.307999 8.905000 33.331001 # 2 
5830 1 1 -1.179400 32.337997 2.210000 27.773001 # 1 
5831 1 2 0.589700 32.795998 1.417000 28.053999 # 2 
5832 1 2 0.589700 31.570000 1.888000 27.299999 # 2 
5833 1 1 -1.179400 32.337997 9.820000 27.773001 # 1 
5834 1 2 0.589700 31.572001 10.069000 27.256001 # 2 
5835 1 2 0.589700 32.857002 9.271000 27.184999 # 2 
5836 1 1 -1.179400 32.337997 2.210000 32.376999 # 1 
5837 1 2 0.589700 32.079002 2.738000 31.623001 # 2 
5838 1 2 0.589700 32.882000 2.795000 32.903999 # 2 
5839 1 1 -1.179400 32.337997 9.820000 32.376999 # 1 
5840 1 2 0.589700 32.827999 10.573999 32.046001 # 2 
5841 1 2 0.589700 32.070999 9.344000 31.591000 # 2 
5842 1 1 -1.179400 27.066000 6.015000 30.074999 # 1 
5843 1 2 0.589700 27.592001 6.814000 30.046001 # 2 
5844 1 2 0.589700 26.540001 6.044001 29.275999 # 2 
5845 1 1 -1.179400 33.084000 6.015000 30.074999 # 1 
5846 1 2 0.589700 33.610001 5.986000 30.874001 # 2 
5847 1 2 0.589700 32.557999 5.216000 30.104000 # 2 
5848 1 1 -1.179400 25.481998 6.015000 32.396000 # 1 
5849 1 2 0.589700 26.024000 6.010000 31.607000 # 2 
5850 1 2 0.589700 25.767000 5.245000 32.888000 # 2 
5851 1 1 -1.179400 34.667999 6.015000 32.396000 # 1 
5852 1 2 0.589700 34.407001 6.789000 32.895000 # 2 
5853 1 2 0.589700 35.625000 6.033000 32.407001 # 2 
5854 1 1 -1.179400 25.481998 6.015000 27.754000 # 1 
5855 1 2 0.589700 24.525002 5.997000 27.743000 # 2 
5856 1 2 0.589700 25.743000 5.241000 27.255001 # 2 
5857 1 1 -1.179400 34.667999 6.015000 27.754000 # 1 
5858 1 2 0.589700 34.125999 6.020000 28.542999 # 2 
5859 1 2 0.589700 34.382999 6.785000 27.262001 # 2 
5860 1 1 -1.179400 28.653000 3.695000 30.074999 # 1 
5861 1 2 0.589700 28.110001 4.483000 30.079998 # 2 
5862 1 2 0.589700 28.368000 3.203000 30.845001 # 2 
5863 1 1 -1.179400 31.497000 3.695000 30.074999 # 1 
5864 1 2 0.589700 30.539999 3.683000 30.057001 # 2 
5865 1 2 0.589700 31.758001 3.195000 29.300999 # 2 
5866 1 1 -1.179400 28.653000 8.335000 30.074999 # 1 
5867 1 2 0.589700 28.392000 8.835000 30.848999 # 2 
5868 1 2 0.589700 29.610001 8.347000 30.093000 # 2 
5869 1 1 -1.179400 31.497000 8.335000 30.074999 # 1 
5870 1 2 0.589700 32.040001 7.547000 30.070000 # 2 
5871 1 2 0.589700 31.782000 8.827000 29.305000 # 2 
5872 1 1 -1.179400 30.074999 3.006000 36.090000 # 1 
5873 1 2 0.589700 30.046001 2.480000 35.291000 # 2 
5874 1 2 0.589700 29.275999 3.532000 36.061001 # 2 
5875 1 1 -1.179400 27.755001 7.437000 36.090000 # 1 
5876 1 2 0.589700 28.545000 7.977000 36.091999 # 2 
5877 1 2 0.589700 27.260000 7.739000 35.327999 # 2 
5878 1 1 -1.179400 32.395000 7.437000 36.090000 # 1 
5879 1 2 0.589700 32.893997 7.709000 35.320000 # 2 
5880 1 2 0.589700 32.412998 6.481000 36.062000 # 2 
5881 1 1 -1.179400 24.059999 9.709000 37.512001 # 1 
5882 1 2 0.589700 24.841999 9.230000 37.785000 # 2 
5883 1 2 0.589700 24.062000 10.499000 38.052002 # 2 
5884 1 1 -1.179400 24.059999 9.709000 46.697998 # 1 
5885 1 2 0.589700 24.846001 9.226000 46.441998 # 2 
5886 1 2 0.589700 24.073999 9.700000 47.654999 # 2 
5887 1 1 -1.179400 30.074999 9.024000 36.090000 # 1 
5888 1 2 0.589700 30.104000 9.550000 36.889000 # 2 
5889 1 2 0.589700 30.874001 8.498000 36.118999 # 2 
5890 1 1 -1.179400 30.074999 1.422000 38.410999 # 1 
5891 1 2 0.589700 29.293001 1.695000 38.889999 # 2 
5892 1 2 0.589700 30.072998 1.962000 37.620998 # 2 
5893 1 1 -1.179400 30.074999 10.608000 38.410999 # 1 
5894 1 2 0.589700 29.289000 10.352000 38.894001 # 2 
5895 1 2 0.589700 30.060999 11.565000 38.419003 # 2 
5896 1 1 -1.179400 30.074999 1.422000 45.798996 # 1 
5897 1 2 0.589700 30.861000 1.678000 45.316002 # 2 
5898 1 2 0.589700 30.088999 0.465000 45.790001 # 2 
5899 1 1 -1.179400 30.074999 10.608000 45.798996 # 1 
5900 1 2 0.589700 30.077000 10.067999 46.588997 # 2 
5901 1 2 0.589700 30.857000 10.334999 45.320000 # 2 
5902 1 1 -1.179400 27.755001 4.593000 36.090000 # 1 
5903 1 2 0.589700 27.256001 4.321000 36.860001 # 2 
5904 1 2 0.589700 27.737000 5.549000 36.118000 # 2 
5905 1 1 -1.179400 26.380001 0.000000 43.526997 # 1 
5906 1 2 0.589700 26.879002 0.770000 43.799000 # 2 
5907 1 2 0.589700 26.398001 0.028000 42.570999 # 2 
5908 1 1 -1.179400 26.322998 3.713000 38.299999 # 1 
5909 1 2 0.589700 26.841000 3.125000 38.848999 # 2 
5910 1 2 0.589700 25.557001 3.196000 38.050999 # 2 
5911 1 1 -1.179400 26.322998 3.713000 45.910000 # 1 
5912 1 2 0.589700 26.781002 3.994000 46.702999 # 2 
5913 1 2 0.589700 25.555000 3.240000 46.231998 # 2 
5914 1 1 -1.179400 26.322998 8.317000 38.299999 # 1 
5915 1 2 0.589700 26.055000 7.531000 38.776001 # 2 
5916 1 2 0.589700 26.813000 7.986000 37.546001 # 2 
5917 1 1 -1.179400 26.322998 8.317000 45.910000 # 1 
5918 1 2 0.589700 26.867001 8.844000 45.324997 # 2 
5919 1 2 0.589700 26.063999 7.563000 45.382000 # 2 
5920 1 1 -1.179400 27.812000 2.210000 39.803001 # 1 
5921 1 2 0.589700 28.078999 2.686000 40.588997 # 2 
5922 1 2 0.589700 27.321999 1.456000 40.134003 # 2 
5923 1 1 -1.179400 27.812000 9.820000 39.803001 # 1 
5924 1 2 0.589700 28.071001 9.292000 40.556999 # 2 
5925 1 2 0.589700 27.268000 9.235000 39.276001 # 2 
5926 1 1 -1.179400 27.812000 2.210000 44.407001 # 1 
5927 1 2 0.589700 28.577999 1.961000 44.924004 # 2 
5928 1 2 0.589700 27.293999 2.759000 44.994999 # 2 
5929 1 1 -1.179400 27.812000 9.820000 44.407001 # 1 
5930 1 2 0.589700 28.580000 10.142000 44.879997 # 2 
5931 1 2 0.589700 27.354000 10.613001 44.125999 # 2 
5932 1 1 -1.179400 32.395000 4.593000 36.090000 # 1 
5933 1 2 0.589700 32.889999 4.291000 36.852001 # 2 
5934 1 2 0.589700 31.605000 4.053000 36.087997 # 2 
5935 1 1 -1.179400 33.770000 0.000000 43.526997 # 1 
5936 1 2 0.589700 33.275002 0.762000 43.828999 # 2 
5937 1 2 0.589700 34.560001 -0.002000 44.067001 # 2 
5938 1 1 -1.179400 33.827000 3.713000 38.299999 # 1 
5939 1 2 0.589700 34.086002 4.467000 38.828003 # 2 
5940 1 2 0.589700 33.283001 3.186000 38.884998 # 2 
5941 1 1 -1.179400 33.827000 3.713000 45.910000 # 1 
5942 1 2 0.589700 33.336998 4.044000 46.664001 # 2 
5943 1 2 0.589700 34.094997 4.499000 45.433998 # 2 
5944 1 1 -1.179400 33.827000 8.317000 38.299999 # 1 
5945 1 2 0.589700 34.595001 8.790000 37.978001 # 2 
5946 1 2 0.589700 33.368999 8.036000 37.507000 # 2 
5947 1 1 -1.179400 33.827000 8.317000 45.910000 # 1 
5948 1 2 0.589700 34.593002 8.834000 46.159000 # 2 
5949 1 2 0.589700 33.307999 8.905000 45.361000 # 2 
5950 1 1 -1.179400 32.337997 2.210000 39.803001 # 1 
5951 1 2 0.589700 32.795998 1.417000 40.084000 # 2 
5952 1 2 0.589700 31.570000 1.888000 39.330002 # 2 
5953 1 1 -1.179400 32.337997 9.820000 39.803001 # 1 
5954 1 2 0.589700 31.572001 10.069000 39.285999 # 2 
5955 1 2 0.589700 32.857002 9.271000 39.215000 # 2 
5956 1 1 -1.179400 32.337997 2.210000 44.407001 # 1 
5957 1 2 0.589700 32.079002 2.738000 43.653000 # 2 
5958 1 2 0.589700 32.882000 2.795000 44.934002 # 2 
5959 1 1 -1.179400 32.337997 9.820000 44.407001 # 1 
5960 1 2 0.589700 32.827999 10.573999 44.076000 # 2 
5961 1 2 0.589700 32.070999 9.344000 43.621002 # 2 
5962 1 1 -1.179400 27.066000 6.015000 42.104996 # 1 
5963 1 2 0.589700 27.592001 6.814000 42.076000 # 2 
5964 1 2 0.589700 26.540001 6.044001 41.306000 # 2 
5965 1 1 -1.179400 33.084000 6.015000 42.104996 # 1 
5966 1 2 0.589700 33.610001 5.986000 42.903999 # 2 
5967 1 2 0.589700 32.557999 5.216000 42.133999 # 2 
5968 1 1 -1.179400 25.481998 6.015000 44.426003 # 1 
5969 1 2 0.589700 26.024000 6.010000 43.637001 # 2 
5970 1 2 0.589700 25.767000 5.245000 44.917999 # 2 
5971 1 1 -1.179400 34.667999 6.015000 44.426003 # 1 
5972 1 2 0.589700 34.407001 6.789000 44.924999 # 2 
5973 1 2 0.589700 35.625000 6.033000 44.436996 # 2 
5974 1 1 -1.179400 25.481998 6.015000 39.784000 # 1 
5975 1 2 0.589700 24.525002 5.997000 39.772999 # 2 
5976 1 2 0.589700 25.743000 5.241000 39.285000 # 2 
5977 1 1 -1.179400 34.667999 6.015000 39.784000 # 1 
5978 1 2 0.589700 34.125999 6.020000 40.573002 # 2 
5979 1 2 0.589700 34.382999 6.785000 39.292000 # 2 
5980 1 1 -1.179400 28.653000 3.695000 42.104996 # 1 
5981 1 2 0.589700 28.110001 4.483000 42.110001 # 2 
5982 1 2 0.589700 28.368000 3.203000 42.875000 # 2 
5983 1 1 -1.179400 31.497000 3.695000 42.104996 # 1 
5984 1 2 0.589700 30.539999 3.683000 42.087002 # 2 
5985 1 2 0.589700 31.758001 3.195000 41.331001 # 2 
5986 1 1 -1.179400 28.653000 8.335000 42.104996 # 1 
5987 1 2 0.589700 28.392000 8.835000 42.878998 # 2 
5988 1 2 0.589700 29.610001 8.347000 42.122997 # 2 
5989 1 1 -1.179400 31.497000 8.335000 42.104996 # 1 
5990 1 2 0.589700 32.040001 7.547000 42.099998 # 2 
5991 1 2 0.589700 31.782000 8.827000 41.334999 # 2 
5992 1 1 -1.179400 48.119999 0.000000 27.066000 # 1 
5993 1 2 0.589700 47.320999 0.029000 27.592001 # 2 
5994 1 2 0.589700 48.091003 0.799000 26.540001 # 2 
5995 1 1 -1.179400 48.119999 2.321000 25.481998 # 1 
5996 1 2 0.589700 47.334000 2.804000 25.738001 # 2 
5997 1 2 0.589700 48.105999 2.329000 24.525002 # 2 
5998 1 1 -1.179400 48.119999 2.321000 34.667999 # 1 
5999 1 2 0.589700 47.337997 2.800000 34.395000 # 2 
6000 1 2 0.589700 48.118000 1.531000 34.128002 # 2 
6001 1 1 -1.179400 36.090000 12.030000 33.084000 # 1 
6002 1 2 0.589700 36.118999 11.231001 33.610001 # 2 
6003 1 2 0.589700 36.889000 12.000999 32.557999 # 2 
6004 1 1 -1.179400 38.410000 12.030000 28.653000 # 1 
6005 1 2 0.589700 37.620003 12.032000 28.113001 # 2 
6006 1 2 0.589700 38.904999 11.268000 28.351000 # 2 
6007 1 1 -1.179400 45.799999 12.030000 28.653000 # 1 
6008 1 2 0.589700 45.300999 11.260000 28.381001 # 2 
6009 1 2 0.589700 45.781998 12.002000 29.609001 # 2 
6010 1 1 -1.179400 36.090000 12.030000 27.066000 # 1 
6011 1 2 0.589700 35.291000 12.059000 27.592001 # 2 
6012 1 2 0.589700 36.061001 12.829000 26.540001 # 2 
6013 1 1 -1.179400 36.090000 14.351000 25.481998 # 1 
6014 1 2 0.589700 35.304001 14.834000 25.738001 # 2 
6015 1 2 0.589700 36.076000 14.358999 24.525002 # 2 
6016 1 1 -1.179400 36.090000 14.351000 34.667999 # 1 
6017 1 2 0.589700 35.308002 14.830000 34.395000 # 2 
6018 1 2 0.589700 36.087997 13.561000 34.128002 # 2 
6019 1 1 -1.179400 36.090000 21.738998 25.481998 # 1 
6020 1 2 0.589700 36.872002 21.259998 25.755001 # 2 
6021 1 2 0.589700 36.091999 22.528999 26.021999 # 2 
6022 1 1 -1.179400 36.090000 21.738998 34.667999 # 1 
6023 1 2 0.589700 36.875999 21.256001 34.411999 # 2 
6024 1 2 0.589700 36.104000 21.730001 35.625000 # 2 
6025 1 1 -1.179400 42.104996 21.054001 24.059999 # 1 
6026 1 2 0.589700 42.133999 21.580000 24.858999 # 2 
6027 1 2 0.589700 42.903999 20.528000 24.089001 # 2 
6028 1 1 -1.179400 42.104996 13.452001 26.380999 # 1 
6029 1 2 0.589700 41.322998 13.725000 26.860001 # 2 
6030 1 2 0.589700 42.103001 13.992000 25.591000 # 2 
6031 1 1 -1.179400 42.104996 22.637999 26.380999 # 1 
6032 1 2 0.589700 41.319000 22.382000 26.863998 # 2 
6033 1 2 0.589700 42.090996 23.594999 26.389000 # 2 
6034 1 1 -1.179400 42.104996 13.452001 33.769001 # 1 
6035 1 2 0.589700 42.891003 13.708000 33.285999 # 2 
6036 1 2 0.589700 42.118996 12.495001 33.759998 # 2 
6037 1 1 -1.179400 42.104996 22.637999 33.769001 # 1 
6038 1 2 0.589700 42.107002 22.098000 34.558998 # 2 
6039 1 2 0.589700 42.887001 22.365000 33.290001 # 2 
6040 1 1 -1.179400 39.785000 16.622999 24.059999 # 1 
6041 1 2 0.589700 39.285999 16.351000 24.830000 # 2 
6042 1 2 0.589700 39.767002 17.579000 24.087999 # 2 
6043 1 1 -1.179400 38.410000 12.030000 31.497000 # 1 
6044 1 2 0.589700 38.909000 12.799999 31.768999 # 2 
6045 1 2 0.589700 38.427998 12.058001 30.541000 # 2 
6046 1 1 -1.179400 38.353001 15.743000 26.270000 # 1 
6047 1 2 0.589700 38.870998 15.155000 26.819000 # 2 
6048 1 2 0.589700 37.586998 15.226001 26.021000 # 2 
6049 1 1 -1.179400 38.353001 15.743000 33.880001 # 1 
6050 1 2 0.589700 38.811001 16.024000 34.673000 # 2 
6051 1 2 0.589700 37.584999 15.270000 34.202000 # 2 
6052 1 1 -1.179400 38.353001 20.347002 26.270000 # 1 
6053 1 2 0.589700 38.084999 19.561001 26.746002 # 2 
6054 1 2 0.589700 38.842999 20.016001 25.515999 # 2 
6055 1 1 -1.179400 38.353001 20.347002 33.880001 # 1 
6056 1 2 0.589700 38.896999 20.874001 33.294998 # 2 
6057 1 2 0.589700 38.094002 19.593000 33.352001 # 2 
6058 1 1 -1.179400 39.841999 14.240000 27.773001 # 1 
6059 1 2 0.589700 40.109001 14.716001 28.559000 # 2 
6060 1 2 0.589700 39.352001 13.486000 28.104000 # 2 
6061 1 1 -1.179400 39.841999 21.849998 27.773001 # 1 
6062 1 2 0.589700 40.100998 21.322001 28.527000 # 2 
6063 1 2 0.589700 39.298000 21.264999 27.246000 # 2 
6064 1 1 -1.179400 39.841999 14.240000 32.376999 # 1 
6065 1 2 0.589700 40.608002 13.990999 32.893997 # 2 
6066 1 2 0.589700 39.324001 14.789000 32.965000 # 2 
6067 1 1 -1.179400 39.841999 21.849998 32.376999 # 1 
6068 1 2 0.589700 40.610001 22.172001 32.850002 # 2 
6069 1 2 0.589700 39.383999 22.643002 32.096001 # 2 
6070 1 1 -1.179400 44.425003 16.622999 24.059999 # 1 
6071 1 2 0.589700 44.920002 16.320999 24.821999 # 2 
6072 1 2 0.589700 43.635002 16.083000 24.058001 # 2 
6073 1 1 -1.179400 45.799999 12.030000 31.497000 # 1 
6074 1 2 0.589700 45.305000 12.792000 31.799000 # 2 
6075 1 2 0.589700 46.590000 12.028000 32.037003 # 2 
6076 1 1 -1.179400 45.857002 15.743000 26.270000 # 1 
6077 1 2 0.589700 46.115997 16.497000 26.798000 # 2 
6078 1 2 0.589700 45.313000 15.216000 26.855000 # 2 
6079 1 1 -1.179400 45.857002 15.743000 33.880001 # 1 
6080 1 2 0.589700 45.367004 16.074001 34.634003 # 2 
6081 1 2 0.589700 46.125000 16.528999 33.403999 # 2 
6082 1 1 -1.179400 45.857002 20.347002 26.270000 # 1 
6083 1 2 0.589700 46.625000 20.820000 25.948000 # 2 
6084 1 2 0.589700 45.398998 20.066002 25.476999 # 2 
6085 1 1 -1.179400 45.857002 20.347002 33.880001 # 1 
6086 1 2 0.589700 46.623001 20.864000 34.128998 # 2 
6087 1 2 0.589700 45.338001 20.934999 33.331001 # 2 
6088 1 1 -1.179400 44.368000 14.240000 27.773001 # 1 
6089 1 2 0.589700 44.826004 13.447000 28.053999 # 2 
6090 1 2 0.589700 43.600002 13.918000 27.299999 # 2 
6091 1 1 -1.179400 44.368000 21.849998 27.773001 # 1 
6092 1 2 0.589700 43.601997 22.099001 27.256001 # 2 
6093 1 2 0.589700 44.887001 21.301001 27.184999 # 2 
6094 1 1 -1.179400 44.368000 14.240000 32.376999 # 1 
6095 1 2 0.589700 44.109001 14.768000 31.623001 # 2 
6096 1 2 0.589700 44.911999 14.825000 32.903999 # 2 
6097 1 1 -1.179400 44.368000 21.849998 32.376999 # 1 
6098 1 2 0.589700 44.857998 22.604000 32.046001 # 2 
6099 1 2 0.589700 44.100998 21.373999 31.591000 # 2 
6100 1 1 -1.179400 39.096001 18.045000 30.074999 # 1 
6101 1 2 0.589700 39.621998 18.844000 30.046001 # 2 
6102 1 2 0.589700 38.570000 18.073999 29.275999 # 2 
6103 1 1 -1.179400 45.114002 18.045000 30.074999 # 1 
6104 1 2 0.589700 45.639999 18.015999 30.874001 # 2 
6105 1 2 0.589700 44.587997 17.246000 30.104000 # 2 
6106 1 1 -1.179400 37.512001 18.045000 32.396000 # 1 
6107 1 2 0.589700 38.054001 18.040001 31.607000 # 2 
6108 1 2 0.589700 37.797001 17.275000 32.888000 # 2 
6109 1 1 -1.179400 46.697998 18.045000 32.396000 # 1 
6110 1 2 0.589700 46.437000 18.819000 32.895000 # 2 
6111 1 2 0.589700 47.654999 18.063000 32.407001 # 2 
6112 1 1 -1.179400 37.512001 18.045000 27.754000 # 1 
6113 1 2 0.589700 36.555000 18.027000 27.743000 # 2 
6114 1 2 0.589700 37.772999 17.271000 27.255001 # 2 
6115 1 1 -1.179400 46.697998 18.045000 27.754000 # 1 
6116 1 2 0.589700 46.156002 18.049999 28.542999 # 2 
6117 1 2 0.589700 46.413002 18.815001 27.262001 # 2 
6118 1 1 -1.179400 40.682999 15.725000 30.074999 # 1 
6119 1 2 0.589700 40.139999 16.513000 30.079998 # 2 
6120 1 2 0.589700 40.398003 15.233001 30.845001 # 2 
6121 1 1 -1.179400 43.526997 15.725000 30.074999 # 1 
6122 1 2 0.589700 42.570000 15.713000 30.057001 # 2 
6123 1 2 0.589700 43.787998 15.225000 29.300999 # 2 
6124 1 1 -1.179400 40.682999 20.365000 30.074999 # 1 
6125 1 2 0.589700 40.422001 20.865000 30.848999 # 2 
6126 1 2 0.589700 41.639999 20.376999 30.093000 # 2 
6127 1 1 -1.179400 43.526997 20.365000 30.074999 # 1 
6128 1 2 0.589700 44.070000 19.577000 30.070000 # 2 
6129 1 2 0.589700 43.811996 20.857000 29.305000 # 2 
6130 1 1 -1.179400 42.104996 3.006000 36.090000 # 1 
6131 1 2 0.589700 42.076000 2.480000 35.291000 # 2 
6132 1 2 0.589700 41.306000 3.532000 36.061001 # 2 
6133 1 1 -1.179400 39.785000 7.437000 36.090000 # 1 
6134 1 2 0.589700 40.574997 7.977000 36.091999 # 2 
6135 1 2 0.589700 39.290001 7.739000 35.327999 # 2 
6136 1 1 -1.179400 44.425003 7.437000 36.090000 # 1 
6137 1 2 0.589700 44.924004 7.709000 35.320000 # 2 
6138 1 2 0.589700 44.443001 6.481000 36.062000 # 2 
6139 1 1 -1.179400 36.090000 0.000000 39.096001 # 1 
6140 1 2 0.589700 35.291000 0.029000 39.621998 # 2 
6141 1 2 0.589700 36.061001 0.799000 38.570000 # 2 
6142 1 1 -1.179400 36.090000 2.321000 37.512001 # 1 
6143 1 2 0.589700 35.304001 2.804000 37.767998 # 2 
6144 1 2 0.589700 36.076000 2.329000 36.555000 # 2 
6145 1 1 -1.179400 36.090000 2.321000 46.697998 # 1 
6146 1 2 0.589700 35.308002 2.800000 46.424999 # 2 
6147 1 2 0.589700 36.087997 1.531000 46.157997 # 2 
6148 1 1 -1.179400 36.090000 9.709000 37.512001 # 1 
6149 1 2 0.589700 36.872002 9.230000 37.785000 # 2 
6150 1 2 0.589700 36.091999 10.499000 38.052002 # 2 
6151 1 1 -1.179400 36.090000 9.709000 46.697998 # 1 
6152 1 2 0.589700 36.875999 9.226000 46.441998 # 2 
6153 1 2 0.589700 36.104000 9.700000 47.654999 # 2 
6154 1 1 -1.179400 42.104996 9.024000 36.090000 # 1 
6155 1 2 0.589700 42.133999 9.550000 36.889000 # 2 
6156 1 2 0.589700 42.903999 8.498000 36.118999 # 2 
6157 1 1 -1.179400 42.104996 1.422000 38.410999 # 1 
6158 1 2 0.589700 41.322998 1.695000 38.889999 # 2 
6159 1 2 0.589700 42.103001 1.962000 37.620998 # 2 
6160 1 1 -1.179400 42.104996 10.608000 38.410999 # 1 
6161 1 2 0.589700 41.319000 10.352000 38.894001 # 2 
6162 1 2 0.589700 42.090996 11.565000 38.419003 # 2 
6163 1 1 -1.179400 42.104996 1.422000 45.798996 # 1 
6164 1 2 0.589700 42.891003 1.678000 45.316002 # 2 
6165 1 2 0.589700 42.118996 0.465000 45.790001 # 2 
6166 1 1 -1.179400 42.104996 10.608000 45.798996 # 1 
6167 1 2 0.589700 42.107002 10.067999 46.588997 # 2 
6168 1 2 0.589700 42.887001 10.334999 45.320000 # 2 
6169 1 1 -1.179400 39.785000 4.593000 36.090000 # 1 
6170 1 2 0.589700 39.285999 4.321000 36.860001 # 2 
6171 1 2 0.589700 39.767002 5.549000 36.118000 # 2 
6172 1 1 -1.179400 38.410000 0.000000 43.526997 # 1 
6173 1 2 0.589700 38.909000 0.770000 43.799000 # 2 
6174 1 2 0.589700 38.427998 0.028000 42.570999 # 2 
6175 1 1 -1.179400 38.353001 3.713000 38.299999 # 1 
6176 1 2 0.589700 38.870998 3.125000 38.848999 # 2 
6177 1 2 0.589700 37.586998 3.196000 38.050999 # 2 
6178 1 1 -1.179400 38.353001 3.713000 45.910000 # 1 
6179 1 2 0.589700 38.811001 3.994000 46.702999 # 2 
6180 1 2 0.589700 37.584999 3.240000 46.231998 # 2 
6181 1 1 -1.179400 38.353001 8.317000 38.299999 # 1 
6182 1 2 0.589700 38.084999 7.531000 38.776001 # 2 
6183 1 2 0.589700 38.842999 7.986000 37.546001 # 2 
6184 1 1 -1.179400 38.353001 8.317000 45.910000 # 1 
6185 1 2 0.589700 38.896999 8.844000 45.324997 # 2 
6186 1 2 0.589700 38.094002 7.563000 45.382000 # 2 
6187 1 1 -1.179400 39.841999 2.210000 39.803001 # 1 
6188 1 2 0.589700 40.109001 2.686000 40.588997 # 2 
6189 1 2 0.589700 39.352001 1.456000 40.134003 # 2 
6190 1 1 -1.179400 39.841999 9.820000 39.803001 # 1 
6191 1 2 0.589700 40.100998 9.292000 40.556999 # 2 
6192 1 2 0.589700 39.298000 9.235000 39.276001 # 2 
6193 1 1 -1.179400 39.841999 2.210000 44.407001 # 1 
6194 1 2 0.589700 40.608002 1.961000 44.924004 # 2 
6195 1 2 0.589700 39.324001 2.759000 44.994999 # 2 
6196 1 1 -1.179400 39.841999 9.820000 44.407001 # 1 
6197 1 2 0.589700 40.610001 10.142000 44.879997 # 2 
6198 1 2 0.589700 39.383999 10.613001 44.125999 # 2 
6199 1 1 -1.179400 44.425003 4.593000 36.090000 # 1 
6200 1 2 0.589700 44.920002 4.291000 36.852001 # 2 
6201 1 2 0.589700 43.635002 4.053000 36.087997 # 2 
6202 1 1 -1.179400 45.799999 0.000000 43.526997 # 1 
6203 1 2 0.589700 45.305000 0.762000 43.828999 # 2 
6204 1 2 0.589700 46.590000 -0.002000 44.067001 # 2 
6205 1 1 -1.179400 45.857002 3.713000 38.299999 # 1 
6206 1 2 0.589700 46.115997 4.467000 38.828003 # 2 
6207 1 2 0.589700 45.313000 3.186000 38.884998 # 2 
6208 1 1 -1.179400 45.857002 3.713000 45.910000 # 1 
6209 1 2 0.589700 45.367004 4.044000 46.664001 # 2 
6210 1 2 0.589700 46.125000 4.499000 45.433998 # 2 
6211 1 1 -1.179400 45.857002 8.317000 38.299999 # 1 
6212 1 2 0.589700 46.625000 8.790000 37.978001 # 2 
6213 1 2 0.589700 45.398998 8.036000 37.507000 # 2 
6214 1 1 -1.179400 45.857002 8.317000 45.910000 # 1 
6215 1 2 0.589700 46.623001 8.834000 46.159000 # 2 
6216 1 2 0.589700 45.338001 8.905000 45.361000 # 2 
6217 1 1 -1.179400 44.368000 2.210000 39.803001 # 1 
6218 1 2 0.589700 44.826004 1.417000 40.084000 # 2 
6219 1 2 0.589700 43.600002 1.888000 39.330002 # 2 
6220 1 1 -1.179400 44.368000 9.820000 39.803001 # 1 
6221 1 2 0.589700 43.601997 10.069000 39.285999 # 2 
6222 1 2 0.589700 44.887001 9.271000 39.215000 # 2 
6223 1 1 -1.179400 44.368000 2.210000 44.407001 # 1 
6224 1 2 0.589700 44.109001 2.738000 43.653000 # 2 
6225 1 2 0.589700 44.911999 2.795000 44.934002 # 2 
6226 1 1 -1.179400 44.368000 9.820000 44.407001 # 1 
6227 1 2 0.589700 44.857998 10.573999 44.076000 # 2 
6228 1 2 0.589700 44.100998 9.344000 43.621002 # 2 
6229 1 1 -1.179400 39.096001 6.015000 42.104996 # 1 
6230 1 2 0.589700 39.621998 6.814000 42.076000 # 2 
6231 1 2 0.589700 38.570000 6.044001 41.306000 # 2 
6232 1 1 -1.179400 45.114002 6.015000 42.104996 # 1 
6233 1 2 0.589700 45.639999 5.986000 42.903999 # 2 
6234 1 2 0.589700 44.587997 5.216000 42.133999 # 2 
6235 1 1 -1.179400 37.512001 6.015000 44.426003 # 1 
6236 1 2 0.589700 38.054001 6.010000 43.637001 # 2 
6237 1 2 0.589700 37.797001 5.245000 44.917999 # 2 
6238 1 1 -1.179400 46.697998 6.015000 44.426003 # 1 
6239 1 2 0.589700 46.437000 6.789000 44.924999 # 2 
6240 1 2 0.589700 47.654999 6.033000 44.436996 # 2 
6241 1 1 -1.179400 37.512001 6.015000 39.784000 # 1 
6242 1 2 0.589700 36.555000 5.997000 39.772999 # 2 
6243 1 2 0.589700 37.772999 5.241000 39.285000 # 2 
6244 1 1 -1.179400 46.697998 6.015000 39.784000 # 1 
6245 1 2 0.589700 46.156002 6.020000 40.573002 # 2 
6246 1 2 0.589700 46.413002 6.785000 39.292000 # 2 
6247 1 1 -1.179400 40.682999 3.695000 42.104996 # 1 
6248 1 2 0.589700 40.139999 4.483000 42.110001 # 2 
6249 1 2 0.589700 40.398003 3.203000 42.875000 # 2 
6250 1 1 -1.179400 43.526997 3.695000 42.104996 # 1 
6251 1 2 0.589700 42.570000 3.683000 42.087002 # 2 
6252 1 2 0.589700 43.787998 3.195000 41.331001 # 2 
6253 1 1 -1.179400 40.682999 8.335000 42.104996 # 1 
6254 1 2 0.589700 40.422001 8.835000 42.878998 # 2 
6255 1 2 0.589700 41.639999 8.347000 42.122997 # 2 
6256 1 1 -1.179400 43.526997 8.335000 42.104996 # 1 
6257 1 2 0.589700 44.070000 7.547000 42.099998 # 2 
6258 1 2 0.589700 43.811996 8.827000 41.334999 # 2 
6259 1 1 -1.179400 24.059999 24.059999 33.084000 # 1 
6260 1 2 0.589700 24.089001 23.261002 33.610001 # 2 
6261 1 2 0.589700 24.858999 24.031000 32.557999 # 2 
6262 1 1 -1.179400 26.380001 24.059999 28.653000 # 1 
6263 1 2 0.589700 25.590000 24.062000 28.113001 # 2 
6264 1 2 0.589700 26.875000 23.297998 28.351000 # 2 
6265 1 1 -1.179400 33.770000 24.059999 28.653000 # 1 
6266 1 2 0.589700 33.271000 23.290001 28.381001 # 2 
6267 1 2 0.589700 33.751999 24.032000 29.609001 # 2 
6268 1 1 -1.179400 30.074999 15.036000 36.090000 # 1 
6269 1 2 0.589700 30.046001 14.510000 35.291000 # 2 
6270 1 2 0.589700 29.275999 15.562000 36.061001 # 2 
6271 1 1 -1.179400 27.755001 19.466999 36.090000 # 1 
6272 1 2 0.589700 28.545000 20.007000 36.091999 # 2 
6273 1 2 0.589700 27.260000 19.768999 35.327999 # 2 
6274 1 1 -1.179400 32.395000 19.466999 36.090000 # 1 
6275 1 2 0.589700 32.893997 19.739000 35.320000 # 2 
6276 1 2 0.589700 32.412998 18.511000 36.062000 # 2 
6277 1 1 -1.179400 24.059999 12.030000 45.114002 # 1 
6278 1 2 0.589700 24.089001 11.231001 45.639999 # 2 
6279 1 2 0.589700 24.858999 12.000999 44.587997 # 2 
6280 1 1 -1.179400 26.380001 12.030000 40.682999 # 1 
6281 1 2 0.589700 25.590000 12.032000 40.142998 # 2 
6282 1 2 0.589700 26.875000 11.268000 40.380997 # 2 
6283 1 1 -1.179400 33.770000 12.030000 40.682999 # 1 
6284 1 2 0.589700 33.271000 11.260000 40.410999 # 2 
6285 1 2 0.589700 33.751999 12.002000 41.639000 # 2 
6286 1 1 -1.179400 24.059999 21.738998 37.512001 # 1 
6287 1 2 0.589700 24.841999 21.259998 37.785000 # 2 
6288 1 2 0.589700 24.062000 22.528999 38.052002 # 2 
6289 1 1 -1.179400 24.059999 21.738998 46.697998 # 1 
6290 1 2 0.589700 24.846001 21.256001 46.441998 # 2 
6291 1 2 0.589700 24.073999 21.730001 47.654999 # 2 
6292 1 1 -1.179400 30.074999 21.054001 36.090000 # 1 
6293 1 2 0.589700 30.104000 21.580000 36.889000 # 2 
6294 1 2 0.589700 30.874001 20.528000 36.118999 # 2 
6295 1 1 -1.179400 30.074999 13.452001 38.410999 # 1 
6296 1 2 0.589700 29.293001 13.725000 38.889999 # 2 
6297 1 2 0.589700 30.072998 13.992000 37.620998 # 2 
6298 1 1 -1.179400 30.074999 22.637999 38.410999 # 1 
6299 1 2 0.589700 29.289000 22.382000 38.894001 # 2 
6300 1 2 0.589700 30.060999 23.594999 38.419003 # 2 
6301 1 1 -1.179400 30.074999 13.452001 45.798996 # 1 
6302 1 2 0.589700 30.861000 13.708000 45.316002 # 2 
6303 1 2 0.589700 30.088999 12.495001 45.790001 # 2 
6304 1 1 -1.179400 30.074999 22.637999 45.798996 # 1 
6305 1 2 0.589700 30.077000 22.098000 46.588997 # 2 
6306 1 2 0.589700 30.857000 22.365000 45.320000 # 2 
6307 1 1 -1.179400 27.755001 16.622999 36.090000 # 1 
6308 1 2 0.589700 27.256001 16.351000 36.860001 # 2 
6309 1 2 0.589700 27.737000 17.579000 36.118000 # 2 
6310 1 1 -1.179400 26.380001 12.030000 43.526997 # 1 
6311 1 2 0.589700 26.879002 12.799999 43.799000 # 2 
6312 1 2 0.589700 26.398001 12.058001 42.570999 # 2 
6313 1 1 -1.179400 26.322998 15.743000 38.299999 # 1 
6314 1 2 0.589700 26.841000 15.155000 38.848999 # 2 
6315 1 2 0.589700 25.557001 15.226001 38.050999 # 2 
6316 1 1 -1.179400 26.322998 15.743000 45.910000 # 1 
6317 1 2 0.589700 26.781002 16.024000 46.702999 # 2 
6318 1 2 0.589700 25.555000 15.270000 46.231998 # 2 
6319 1 1 -1.179400 26.322998 20.347002 38.299999 # 1 
6320 1 2 0.589700 26.055000 19.561001 38.776001 # 2 
6321 1 2 0.589700 26.813000 20.016001 37.546001 # 2 
6322 1 1 -1.179400 26.322998 20.347002 45.910000 # 1 
6323 1 2 0.589700 26.867001 20.874001 45.324997 # 2 
6324 1 2 0.589700 26.063999 19.593000 45.382000 # 2 
6325 1 1 -1.179400 27.812000 14.240000 39.803001 # 1 
6326 1 2 0.589700 28.078999 14.716001 40.588997 # 2 
6327 1 2 0.589700 27.321999 13.486000 40.134003 # 2 
6328 1 1 -1.179400 27.812000 21.849998 39.803001 # 1 
6329 1 2 0.589700 28.071001 21.322001 40.556999 # 2 
6330 1 2 0.589700 27.268000 21.264999 39.276001 # 2 
6331 1 1 -1.179400 27.812000 14.240000 44.407001 # 1 
6332 1 2 0.589700 28.577999 13.990999 44.924004 # 2 
6333 1 2 0.589700 27.293999 14.789000 44.994999 # 2 
6334 1 1 -1.179400 27.812000 21.849998 44.407001 # 1 
6335 1 2 0.589700 28.580000 22.172001 44.879997 # 2 
6336 1 2 0.589700 27.354000 22.643002 44.125999 # 2 
6337 1 1 -1.179400 32.395000 16.622999 36.090000 # 1 
6338 1 2 0.589700 32.889999 16.320999 36.852001 # 2 
6339 1 2 0.589700 31.605000 16.083000 36.087997 # 2 
6340 1 1 -1.179400 33.770000 12.030000 43.526997 # 1 
6341 1 2 0.589700 33.275002 12.792000 43.828999 # 2 
6342 1 2 0.589700 34.560001 12.028000 44.067001 # 2 
6343 1 1 -1.179400 33.827000 15.743000 38.299999 # 1 
6344 1 2 0.589700 34.086002 16.497000 38.828003 # 2 
6345 1 2 0.589700 33.283001 15.216000 38.884998 # 2 
6346 1 1 -1.179400 33.827000 15.743000 45.910000 # 1 
6347 1 2 0.589700 33.336998 16.074001 46.664001 # 2 
6348 1 2 0.589700 34.094997 16.528999 45.433998 # 2 
6349 1 1 -1.179400 33.827000 20.347002 38.299999 # 1 
6350 1 2 0.589700 34.595001 20.820000 37.978001 # 2 
6351 1 2 0.589700 33.368999 20.066002 37.507000 # 2 
6352 1 1 -1.179400 33.827000 20.347002 45.910000 # 1 
6353 1 2 0.589700 34.593002 20.864000 46.159000 # 2 
6354 1 2 0.589700 33.307999 20.934999 45.361000 # 2 
6355 1 1 -1.179400 32.337997 14.240000 39.803001 # 1 
6356 1 2 0.589700 32.795998 13.447000 40.084000 # 2 
6357 1 2 0.589700 31.570000 13.918000 39.330002 # 2 
6358 1 1 -1.179400 32.337997 21.849998 39.803001 # 1 
6359 1 2 0.589700 31.572001 22.099001 39.285999 # 2 
6360 1 2 0.589700 32.857002 21.301001 39.215000 # 2 
6361 1 1 -1.179400 32.337997 14.240000 44.407001 # 1 
6362 1 2 0.589700 32.079002 14.768000 43.653000 # 2 
6363 1 2 0.589700 32.882000 14.825000 44.934002 # 2 
6364 1 1 -1.179400 32.337997 21.849998 44.407001 # 1 
6365 1 2 0.589700 32.827999 22.604000 44.076000 # 2 
6366 1 2 0.589700 32.070999 21.373999 43.621002 # 2 
6367 1 1 -1.179400 27.066000 18.045000 42.104996 # 1 
6368 1 2 0.589700 27.592001 18.844000 42.076000 # 2 
6369 1 2 0.589700 26.540001 18.073999 41.306000 # 2 
6370 1 1 -1.179400 33.084000 18.045000 42.104996 # 1 
6371 1 2 0.589700 33.610001 18.015999 42.903999 # 2 
6372 1 2 0.589700 32.557999 17.246000 42.133999 # 2 
6373 1 1 -1.179400 25.481998 18.045000 44.426003 # 1 
6374 1 2 0.589700 26.024000 18.040001 43.637001 # 2 
6375 1 2 0.589700 25.767000 17.275000 44.917999 # 2 
6376 1 1 -1.179400 34.667999 18.045000 44.426003 # 1 
6377 1 2 0.589700 34.407001 18.819000 44.924999 # 2 
6378 1 2 0.589700 35.625000 18.063000 44.436996 # 2 
6379 1 1 -1.179400 25.481998 18.045000 39.784000 # 1 
6380 1 2 0.589700 24.525002 18.027000 39.772999 # 2 
6381 1 2 0.589700 25.743000 17.271000 39.285000 # 2 
6382 1 1 -1.179400 34.667999 18.045000 39.784000 # 1 
6383 1 2 0.589700 34.125999 18.049999 40.573002 # 2 
6384 1 2 0.589700 34.382999 18.815001 39.292000 # 2 
6385 1 1 -1.179400 28.653000 15.725000 42.104996 # 1 
6386 1 2 0.589700 28.110001 16.513000 42.110001 # 2 
6387 1 2 0.589700 28.368000 15.233001 42.875000 # 2 
6388 1 1 -1.179400 31.497000 15.725000 42.104996 # 1 
6389 1 2 0.589700 30.539999 15.713000 42.087002 # 2 
6390 1 2 0.589700 31.758001 15.225000 41.331001 # 2 
6391 1 1 -1.179400 28.653000 20.365000 42.104996 # 1 
6392 1 2 0.589700 28.392000 20.865000 42.878998 # 2 
6393 1 2 0.589700 29.610001 20.376999 42.122997 # 2 
6394 1 1 -1.179400 31.497000 20.365000 42.104996 # 1 
6395 1 2 0.589700 32.040001 19.577000 42.099998 # 2 
6396 1 2 0.589700 31.782000 20.857000 41.334999 # 2 
6397 1 1 -1.179400 48.119999 12.030000 27.066000 # 1 
6398 1 2 0.589700 47.320999 12.059000 27.592001 # 2 
6399 1 2 0.589700 48.091003 12.829000 26.540001 # 2 
6400 1 1 -1.179400 48.119999 14.351000 25.481998 # 1 
6401 1 2 0.589700 47.334000 14.834000 25.738001 # 2 
6402 1 2 0.589700 48.105999 14.358999 24.525002 # 2 
6403 1 1 -1.179400 48.119999 14.351000 34.667999 # 1 
6404 1 2 0.589700 47.337997 14.830000 34.395000 # 2 
6405 1 2 0.589700 48.118000 13.561000 34.128002 # 2 
6406 1 1 -1.179400 36.090000 24.059999 33.084000 # 1 
6407 1 2 0.589700 36.118999 23.261002 33.610001 # 2 
6408 1 2 0.589700 36.889000 24.031000 32.557999 # 2 
6409 1 1 -1.179400 38.410000 24.059999 28.653000 # 1 
6410 1 2 0.589700 37.620003 24.062000 28.113001 # 2 
6411 1 2 0.589700 38.904999 23.297998 28.351000 # 2 
6412 1 1 -1.179400 45.799999 24.059999 28.653000 # 1 
6413 1 2 0.589700 45.300999 23.290001 28.381001 # 2 
6414 1 2 0.589700 45.781998 24.032000 29.609001 # 2 
6415 1 1 -1.179400 42.104996 15.036000 36.090000 # 1 
6416 1 2 0.589700 42.076000 14.510000 35.291000 # 2 
6417 1 2 0.589700 41.306000 15.562000 36.061001 # 2 
6418 1 1 -1.179400 39.785000 19.466999 36.090000 # 1 
6419 1 2 0.589700 40.574997 20.007000 36.091999 # 2 
6420 1 2 0.589700 39.290001 19.768999 35.327999 # 2 
6421 1 1 -1.179400 44.425003 19.466999 36.090000 # 1 
6422 1 2 0.589700 44.924004 19.739000 35.320000 # 2 
6423 1 2 0.589700 44.443001 18.511000 36.062000 # 2 
6424 1 1 -1.179400 36.090000 12.030000 45.114002 # 1 
6425 1 2 0.589700 36.118999 11.231001 45.639999 # 2 
6426 1 2 0.589700 36.889000 12.000999 44.587997 # 2 
6427 1 1 -1.179400 38.410000 12.030000 40.682999 # 1 
6428 1 2 0.589700 37.620003 12.032000 40.142998 # 2 
6429 1 2 0.589700 38.904999 11.268000 40.380997 # 2 
6430 1 1 -1.179400 45.799999 12.030000 40.682999 # 1 
6431 1 2 0.589700 45.300999 11.260000 40.410999 # 2 
6432 1 2 0.589700 45.781998 12.002000 41.639000 # 2 
6433 1 1 -1.179400 36.090000 12.030000 39.096001 # 1 
6434 1 2 0.589700 35.291000 12.059000 39.621998 # 2 
6435 1 2 0.589700 36.061001 12.829000 38.570000 # 2 
6436 1 1 -1.179400 36.090000 14.351000 37.512001 # 1 
6437 1 2 0.589700 35.304001 14.834000 37.767998 # 2 
6438 1 2 0.589700 36.076000 14.358999 36.555000 # 2 
6439 1 1 -1.179400 36.090000 14.351000 46.697998 # 1 
6440 1 2 0.589700 35.308002 14.830000 46.424999 # 2 
6441 1 2 0.589700 36.087997 13.561000 46.157997 # 2 
6442 1 1 -1.179400 36.090000 21.738998 37.512001 # 1 
6443 1 2 0.589700 36.872002 21.259998 37.785000 # 2 
6444 1 2 0.589700 36.091999 22.528999 38.052002 # 2 
6445 1 1 -1.179400 36.090000 21.738998 46.697998 # 1 
6446 1 2 0.589700 36.875999 21.256001 46.441998 # 2 
6447 1 2 0.589700 36.104000 21.730001 47.654999 # 2 
6448 1 1 -1.179400 42.104996 21.054001 36.090000 # 1 
6449 1 2 0.589700 42.133999 21.580000 36.889000 # 2 
6450 1 2 0.589700 42.903999 20.528000 36.118999 # 2 
6451 1 1 -1.179400 42.104996 13.452001 38.410999 # 1 
6452 1 2 0.589700 41.322998 13.725000 38.889999 # 2 
6453 1 2 0.589700 42.103001 13.992000 37.620998 # 2 
6454 1 1 -1.179400 42.104996 22.637999 38.410999 # 1 
6455 1 2 0.589700 41.319000 22.382000 38.894001 # 2 
6456 1 2 0.589700 42.090996 23.594999 38.419003 # 2 
6457 1 1 -1.179400 42.104996 13.452001 45.798996 # 1 
6458 1 2 0.589700 42.891003 13.708000 45.316002 # 2 
6459 1 2 0.589700 42.118996 12.495001 45.790001 # 2 
6460 1 1 -1.179400 42.104996 22.637999 45.798996 # 1 
6461 1 2 0.589700 42.107002 22.098000 46.588997 # 2 
6462 1 2 0.589700 42.887001 22.365000 45.320000 # 2 
6463 1 1 -1.179400 39.785000 16.622999 36.090000 # 1 
6464 1 2 0.589700 39.285999 16.351000 36.860001 # 2 
6465 1 2 0.589700 39.767002 17.579000 36.118000 # 2 
6466 1 1 -1.179400 38.410000 12.030000 43.526997 # 1 
6467 1 2 0.589700 38.909000 12.799999 43.799000 # 2 
6468 1 2 0.589700 38.427998 12.058001 42.570999 # 2 
6469 1 1 -1.179400 38.353001 15.743000 38.299999 # 1 
6470 1 2 0.589700 38.870998 15.155000 38.848999 # 2 
6471 1 2 0.589700 37.586998 15.226001 38.050999 # 2 
6472 1 1 -1.179400 38.353001 15.743000 45.910000 # 1 
6473 1 2 0.589700 38.811001 16.024000 46.702999 # 2 
6474 1 2 0.589700 37.584999 15.270000 46.231998 # 2 
6475 1 1 -1.179400 38.353001 20.347002 38.299999 # 1 
6476 1 2 0.589700 38.084999 19.561001 38.776001 # 2 
6477 1 2 0.589700 38.842999 20.016001 37.546001 # 2 
6478 1 1 -1.179400 38.353001 20.347002 45.910000 # 1 
6479 1 2 0.589700 38.896999 20.874001 45.324997 # 2 
6480 1 2 0.589700 38.094002 19.593000 45.382000 # 2 
6481 1 1 -1.179400 39.841999 14.240000 39.803001 # 1 
6482 1 2 0.589700 40.109001 14.716001 40.588997 # 2 
6483 1 2 0.589700 39.352001 13.486000 40.134003 # 2 
6484 1 1 -1.179400 39.841999 21.849998 39.803001 # 1 
6485 1 2 0.589700 40.100998 21.322001 40.556999 # 2 
6486 1 2 0.589700 39.298000 21.264999 39.276001 # 2 
6487 1 1 -1.179400 39.841999 14.240000 44.407001 # 1 
6488 1 2 0.589700 40.608002 13.990999 44.924004 # 2 
6489 1 2 0.589700 39.324001 14.789000 44.994999 # 2 
6490 1 1 -1.179400 39.841999 21.849998 44.407001 # 1 
6491 1 2 0.589700 40.610001 22.172001 44.879997 # 2 
6492 1 2 0.589700 39.383999 22.643002 44.125999 # 2 
6493 1 1 -1.179400 44.425003 16.622999 36.090000 # 1 
6494 1 2 0.589700 44.920002 16.320999 36.852001 # 2 
6495 1 2 0.589700 43.635002 16.083000 36.087997 # 2 
6496 1 1 -1.179400 45.799999 12.030000 43.526997 # 1 
6497 1 2 0.589700 45.305000 12.792000 43.828999 # 2 
6498 1 2 0.589700 46.590000 12.028000 44.067001 # 2 
6499 1 1 -1.179400 45.857002 15.743000 38.299999 # 1 
6500 1 2 0.589700 46.115997 16.497000 38.828003 # 2 
6501 1 2 0.589700 45.313000 15.216000 38.884998 # 2 
6502 1 1 -1.179400 45.857002 15.743000 45.910000 # 1 
6503 1 2 0.589700 45.367004 16.074001 46.664001 # 2 
6504 1 2 0.589700 46.125000 16.528999 45.433998 # 2 
6505 1 1 -1.179400 45.857002 20.347002 38.299999 # 1 
6506 1 2 0.589700 46.625000 20.820000 37.978001 # 2 
6507 1 2 0.589700 45.398998 20.066002 37.507000 # 2 
6508 1 1 -1.179400 45.857002 20.347002 45.910000 # 1 
6509 1 2 0.589700 46.623001 20.864000 46.159000 # 2 
6510 1 2 0.589700 45.338001 20.934999 45.361000 # 2 
6511 1 1 -1.179400 44.368000 14.240000 39.803001 # 1 
6512 1 2 0.589700 44.826004 13.447000 40.084000 # 2 
6513 1 2 0.589700 43.600002 13.918000 39.330002 # 2 
6514 1 1 -1.179400 44.368000 21.849998 39.803001 # 1 
6515 1 2 0.589700 43.601997 22.099001 39.285999 # 2 
6516 1 2 0.589700 44.887001 21.301001 39.215000 # 2 
6517 1 1 -1.179400 44.368000 14.240000 44.407001 # 1 
6518 1 2 0.589700 44.109001 14.768000 43.653000 # 2 
6519 1 2 0.589700 44.911999 14.825000 44.934002 # 2 
6520 1 1 -1.179400 44.368000 21.849998 44.407001 # 1 
6521 1 2 0.589700 44.857998 22.604000 44.076000 # 2 
6522 1 2 0.589700 44.100998 21.373999 43.621002 # 2 
6523 1 1 -1.179400 39.096001 18.045000 42.104996 # 1 
6524 1 2 0.589700 39.621998 18.844000 42.076000 # 2 
6525 1 2 0.589700 38.570000 18.073999 41.306000 # 2 
6526 1 1 -1.179400 45.114002 18.045000 42.104996 # 1 
6527 1 2 0.589700 45.639999 18.015999 42.903999 # 2 
6528 1 2 0.589700 44.587997 17.246000 42.133999 # 2 
6529 1 1 -1.179400 37.512001 18.045000 44.426003 # 1 
6530 1 2 0.589700 38.054001 18.040001 43.637001 # 2 
6531 1 2 0.589700 37.797001 17.275000 44.917999 # 2 
6532 1 1 -1.179400 46.697998 18.045000 44.426003 # 1 
6533 1 2 0.589700 46.437000 18.819000 44.924999 # 2 
6534 1 2 0.589700 47.654999 18.063000 44.436996 # 2 
6535 1 1 -1.179400 37.512001 18.045000 39.784000 # 1 
6536 1 2 0.589700 36.555000 18.027000 39.772999 # 2 
6537 1 2 0.589700 37.772999 17.271000 39.285000 # 2 
6538 1 1 -1.179400 46.697998 18.045000 39.784000 # 1 
6539 1 2 0.589700 46.156002 18.049999 40.573002 # 2 
6540 1 2 0.589700 46.413002 18.815001 39.292000 # 2 
6541 1 1 -1.179400 40.682999 15.725000 42.104996 # 1 
6542 1 2 0.589700 40.139999 16.513000 42.110001 # 2 
6543 1 2 0.589700 40.398003 15.233001 42.875000 # 2 
6544 1 1 -1.179400 43.526997 15.725000 42.104996 # 1 
6545 1 2 0.589700 42.570000 15.713000 42.087002 # 2 
6546 1 2 0.589700 43.787998 15.225000 41.331001 # 2 
6547 1 1 -1.179400 40.682999 20.365000 42.104996 # 1 
6548 1 2 0.589700 40.422001 20.865000 42.878998 # 2 
6549 1 2 0.589700 41.639999 20.376999 42.122997 # 2 
6550 1 1 -1.179400 43.526997 20.365000 42.104996 # 1 
6551 1 2 0.589700 44.070000 19.577000 42.099998 # 2 
6552 1 2 0.589700 43.811996 20.857000 41.334999 # 2 
6553 1 1 -1.179400 30.074999 3.006000 48.119999 # 1 
6554 1 2 0.589700 30.046001 2.480000 47.320999 # 2 
6555 1 2 0.589700 29.275999 3.532000 48.091003 # 2 
6556 1 1 -1.179400 27.755001 7.437000 48.119999 # 1 
6557 1 2 0.589700 28.545000 7.977000 48.122002 # 2 
6558 1 2 0.589700 27.260000 7.739000 47.357998 # 2 
6559 1 1 -1.179400 32.395000 7.437000 48.119999 # 1 
6560 1 2 0.589700 32.893997 7.709000 47.350002 # 2 
6561 1 2 0.589700 32.412998 6.481000 48.091999 # 2 
6562 1 1 -1.179400 48.119999 0.000000 39.096001 # 1 
6563 1 2 0.589700 47.320999 0.029000 39.621998 # 2 
6564 1 2 0.589700 48.091003 0.799000 38.570000 # 2 
6565 1 1 -1.179400 48.119999 2.321000 37.512001 # 1 
6566 1 2 0.589700 47.334000 2.804000 37.767998 # 2 
6567 1 2 0.589700 48.105999 2.329000 36.555000 # 2 
6568 1 1 -1.179400 48.119999 2.321000 46.697998 # 1 
6569 1 2 0.589700 47.337997 2.800000 46.424999 # 2 
6570 1 2 0.589700 48.118000 1.531000 46.157997 # 2 
6571 1 1 -1.179400 42.104996 3.006000 48.119999 # 1 
6572 1 2 0.589700 42.076000 2.480000 47.320999 # 2 
6573 1 2 0.589700 41.306000 3.532000 48.091003 # 2 
6574 1 1 -1.179400 39.785000 7.437000 48.119999 # 1 
6575 1 2 0.589700 40.574997 7.977000 48.122002 # 2 
6576 1 2 0.589700 39.290001 7.739000 47.357998 # 2 
6577 1 1 -1.179400 44.425003 7.437000 48.119999 # 1 
6578 1 2 0.589700 44.924004 7.709000 47.350002 # 2 
6579 1 2 0.589700 44.443001 6.481000 48.091999 # 2 
6580 1 1 -1.179400 24.059999 24.059999 45.114002 # 1 
6581 1 2 0.589700 24.089001 23.261002 45.639999 # 2 
6582 1 2 0.589700 24.858999 24.031000 44.587997 # 2 
6583 1 1 -1.179400 26.380001 24.059999 40.682999 # 1 
6584 1 2 0.589700 25.590000 24.062000 40.142998 # 2 
6585 1 2 0.589700 26.875000 23.297998 40.380997 # 2 
6586 1 1 -1.179400 33.770000 24.059999 40.682999 # 1 
6587 1 2 0.589700 33.271000 23.290001 40.410999 # 2 
6588 1 2 0.589700 33.751999 24.032000 41.639000 # 2 
6589 1 1 -1.179400 30.074999 15.036000 48.119999 # 1 
6590 1 2 0.589700 30.046001 14.510000 47.320999 # 2 
6591 1 2 0.589700 29.275999 15.562000 48.091003 # 2 
6592 1 1 -1.179400 27.755001 19.466999 48.119999 # 1 
6593 1 2 0.589700 28.545000 20.007000 48.122002 # 2 
6594 1 2 0.589700 27.260000 19.768999 47.357998 # 2 
6595 1 1 -1.179400 32.395000 19.466999 48.119999 # 1 
6596 1 2 0.589700 32.893997 19.739000 47.350002 # 2 
6597 1 2 0.589700 32.412998 18.511000 48.091999 # 2 
6598 1 1 -1.179400 48.119999 12.030000 39.096001 # 1 
6599 1 2 0.589700 47.320999 12.059000 39.621998 # 2 
6600 1 2 0.589700 48.091003 12.829000 38.570000 # 2 
6601 1 1 -1.179400 48.119999 14.351000 37.512001 # 1 
6602 1 2 0.589700 47.334000 14.834000 37.767998 # 2 
6603 1 2 0.589700 48.105999 14.358999 36.555000 # 2 
6604 1 1 -1.179400 48.119999 14.351000 46.697998 # 1 
6605 1 2 0.589700 47.337997 14.830000 46.424999 # 2 
6606 1 2 0.589700 48.118000 13.561000 46.157997 # 2 
6607 1 1 -1.179400 36.090000 24.059999 45.114002 # 1 
6608 1 2 0.589700 36.118999 23.261002 45.639999 # 2 
6609 1 2 0.589700 36.889000 24.031000 44.587997 # 2 
6610 1 1 -1.179400 38.410000 24.059999 40.682999 # 1 
6611 1 2 0.589700 37.620003 24.062000 40.142998 # 2 
6612 1 2 0.589700 38.904999 23.297998 40.380997 # 2 
6613 1 1 -1.179400 45.799999 24.059999 40.682999 # 1 
6614 1 2 0.589700 45.300999 23.290001 40.410999 # 2 
6615 1 2 0.589700 45.781998 24.032000 41.639000 # 2 
6616 1 1 -1.179400 42.104996 15.036000 48.119999 # 1 
6617 1 2 0.589700 42.076000 14.510000 47.320999 # 2 
6618 1 2 0.589700 41.306000 15.562000 48.091003 # 2 
6619 1 1 -1.179400 39.785000 19.466999 48.119999 # 1 
6620 1 2 0.589700 40.574997 20.007000 48.122002 # 2 
6621 1 2 0.589700 39.290001 19.768999 47.357998 # 2 
6622 1 1 -1.179400 44.425003 19.466999 48.119999 # 1 
6623 1 2 0.589700 44.924004 19.739000 47.350002 # 2 
6624 1 2 0.589700 44.443001 18.511000 48.091999 # 2 
6625 1 1 -1.179400 12.030000 24.059999 27.066000 # 1 
6626 1 2 0.589700 11.231001 24.089001 27.592001 # 2 
6627 1 2 0.589700 12.000999 24.858999 26.540001 # 2 
6628 1 1 -1.179400 12.030000 26.380999 25.481998 # 1 
6629 1 2 0.589700 11.244000 26.863998 25.738001 # 2 
6630 1 2 0.589700 12.016000 26.389000 24.525002 # 2 
6631 1 1 -1.179400 12.030000 26.380999 34.667999 # 1 
6632 1 2 0.589700 11.247999 26.860001 34.395000 # 2 
6633 1 2 0.589700 12.028000 25.591000 34.128002 # 2 
6634 1 1 -1.179400 12.030000 33.769001 25.481998 # 1 
6635 1 2 0.589700 12.812000 33.290001 25.755001 # 2 
6636 1 2 0.589700 12.032000 34.558998 26.021999 # 2 
6637 1 1 -1.179400 12.030000 33.769001 34.667999 # 1 
6638 1 2 0.589700 12.816000 33.285999 34.411999 # 2 
6639 1 2 0.589700 12.044000 33.759998 35.625000 # 2 
6640 1 1 -1.179400 18.045000 33.084000 24.059999 # 1 
6641 1 2 0.589700 18.073999 33.610001 24.858999 # 2 
6642 1 2 0.589700 18.844000 32.557999 24.089001 # 2 
6643 1 1 -1.179400 18.045000 25.481998 26.380999 # 1 
6644 1 2 0.589700 17.263000 25.755001 26.860001 # 2 
6645 1 2 0.589700 18.042999 26.021999 25.591000 # 2 
6646 1 1 -1.179400 18.045000 34.667999 26.380999 # 1 
6647 1 2 0.589700 17.259001 34.411999 26.863998 # 2 
6648 1 2 0.589700 18.031000 35.625000 26.389000 # 2 
6649 1 1 -1.179400 18.045000 25.481998 33.769001 # 1 
6650 1 2 0.589700 18.831001 25.738001 33.285999 # 2 
6651 1 2 0.589700 18.059000 24.525002 33.759998 # 2 
6652 1 1 -1.179400 18.045000 34.667999 33.769001 # 1 
6653 1 2 0.589700 18.047001 34.128002 34.558998 # 2 
6654 1 2 0.589700 18.827000 34.395000 33.290001 # 2 
6655 1 1 -1.179400 15.725000 28.653000 24.059999 # 1 
6656 1 2 0.589700 15.226001 28.381001 24.830000 # 2 
6657 1 2 0.589700 15.707001 29.609001 24.087999 # 2 
6658 1 1 -1.179400 14.349999 24.059999 31.497000 # 1 
6659 1 2 0.589700 14.849000 24.830000 31.768999 # 2 
6660 1 2 0.589700 14.368000 24.087999 30.541000 # 2 
6661 1 1 -1.179400 14.292999 27.773001 26.270000 # 1 
6662 1 2 0.589700 14.811000 27.184999 26.819000 # 2 
6663 1 2 0.589700 13.527000 27.256001 26.021000 # 2 
6664 1 1 -1.179400 14.292999 27.773001 33.880001 # 1 
6665 1 2 0.589700 14.751000 28.053999 34.673000 # 2 
6666 1 2 0.589700 13.525000 27.299999 34.202000 # 2 
6667 1 1 -1.179400 14.292999 32.376999 26.270000 # 1 
6668 1 2 0.589700 14.025001 31.591000 26.746002 # 2 
6669 1 2 0.589700 14.783000 32.046001 25.515999 # 2 
6670 1 1 -1.179400 14.292999 32.376999 33.880001 # 1 
6671 1 2 0.589700 14.837000 32.903999 33.294998 # 2 
6672 1 2 0.589700 14.033999 31.623001 33.352001 # 2 
6673 1 1 -1.179400 15.782000 26.270000 27.773001 # 1 
6674 1 2 0.589700 16.049000 26.746002 28.559000 # 2 
6675 1 2 0.589700 15.292000 25.515999 28.104000 # 2 
6676 1 1 -1.179400 15.782000 33.880001 27.773001 # 1 
6677 1 2 0.589700 16.041000 33.352001 28.527000 # 2 
6678 1 2 0.589700 15.238000 33.294998 27.246000 # 2 
6679 1 1 -1.179400 15.782000 26.270000 32.376999 # 1 
6680 1 2 0.589700 16.548000 26.021000 32.893997 # 2 
6681 1 2 0.589700 15.264000 26.819000 32.965000 # 2 
6682 1 1 -1.179400 15.782000 33.880001 32.376999 # 1 
6683 1 2 0.589700 16.549999 34.202000 32.850002 # 2 
6684 1 2 0.589700 15.324000 34.673000 32.096001 # 2 
6685 1 1 -1.179400 20.365000 28.653000 24.059999 # 1 
6686 1 2 0.589700 20.860001 28.351000 24.821999 # 2 
6687 1 2 0.589700 19.575001 28.113001 24.058001 # 2 
6688 1 1 -1.179400 21.740000 24.059999 31.497000 # 1 
6689 1 2 0.589700 21.245001 24.821999 31.799000 # 2 
6690 1 2 0.589700 22.530001 24.058001 32.037003 # 2 
6691 1 1 -1.179400 21.797001 27.773001 26.270000 # 1 
6692 1 2 0.589700 22.056000 28.527000 26.798000 # 2 
6693 1 2 0.589700 21.252998 27.246000 26.855000 # 2 
6694 1 1 -1.179400 21.797001 27.773001 33.880001 # 1 
6695 1 2 0.589700 21.307001 28.104000 34.634003 # 2 
6696 1 2 0.589700 22.065001 28.559000 33.403999 # 2 
6697 1 1 -1.179400 21.797001 32.376999 26.270000 # 1 
6698 1 2 0.589700 22.565001 32.850002 25.948000 # 2 
6699 1 2 0.589700 21.338999 32.096001 25.476999 # 2 
6700 1 1 -1.179400 21.797001 32.376999 33.880001 # 1 
6701 1 2 0.589700 22.563000 32.893997 34.128998 # 2 
6702 1 2 0.589700 21.278000 32.965000 33.331001 # 2 
6703 1 1 -1.179400 20.308001 26.270000 27.773001 # 1 
6704 1 2 0.589700 20.766001 25.476999 28.053999 # 2 
6705 1 2 0.589700 19.540001 25.948000 27.299999 # 2 
6706 1 1 -1.179400 20.308001 33.880001 27.773001 # 1 
6707 1 2 0.589700 19.542000 34.128998 27.256001 # 2 
6708 1 2 0.589700 20.827000 33.331001 27.184999 # 2 
6709 1 1 -1.179400 20.308001 26.270000 32.376999 # 1 
6710 1 2 0.589700 20.049000 26.798000 31.623001 # 2 
6711 1 2 0.589700 20.852001 26.855000 32.903999 # 2 
6712 1 1 -1.179400 20.308001 33.880001 32.376999 # 1 
6713 1 2 0.589700 20.797998 34.634003 32.046001 # 2 
6714 1 2 0.589700 20.041000 33.403999 31.591000 # 2 
6715 1 1 -1.179400 15.036000 30.074999 30.074999 # 1 
6716 1 2 0.589700 15.562000 30.874001 30.046001 # 2 
6717 1 2 0.589700 14.510000 30.104000 29.275999 # 2 
6718 1 1 -1.179400 21.054001 30.074999 30.074999 # 1 
6719 1 2 0.589700 21.580000 30.046001 30.874001 # 2 
6720 1 2 0.589700 20.528000 29.275999 30.104000 # 2 
6721 1 1 -1.179400 13.452001 30.074999 32.396000 # 1 
6722 1 2 0.589700 13.993999 30.070000 31.607000 # 2 
6723 1 2 0.589700 13.737000 29.305000 32.888000 # 2 
6724 1 1 -1.179400 22.637999 30.074999 32.396000 # 1 
6725 1 2 0.589700 22.376999 30.848999 32.895000 # 2 
6726 1 2 0.589700 23.594999 30.093000 32.407001 # 2 
6727 1 1 -1.179400 13.452001 30.074999 27.754000 # 1 
6728 1 2 0.589700 12.495001 30.057001 27.743000 # 2 
6729 1 2 0.589700 13.712999 29.300999 27.255001 # 2 
6730 1 1 -1.179400 22.637999 30.074999 27.754000 # 1 
6731 1 2 0.589700 22.096001 30.079998 28.542999 # 2 
6732 1 2 0.589700 22.353001 30.845001 27.262001 # 2 
6733 1 1 -1.179400 16.622999 27.755001 30.074999 # 1 
6734 1 2 0.589700 16.080000 28.542999 30.079998 # 2 
6735 1 2 0.589700 16.338001 27.263000 30.845001 # 2 
6736 1 1 -1.179400 19.466999 27.755001 30.074999 # 1 
6737 1 2 0.589700 18.510000 27.743000 30.057001 # 2 
6738 1 2 0.589700 19.728001 27.255001 29.300999 # 2 
6739 1 1 -1.179400 16.622999 32.395000 30.074999 # 1 
6740 1 2 0.589700 16.362000 32.895000 30.848999 # 2 
6741 1 2 0.589700 17.580000 32.407001 30.093000 # 2 
6742 1 1 -1.179400 19.466999 32.395000 30.074999 # 1 
6743 1 2 0.589700 20.009998 31.607000 30.070000 # 2 
6744 1 2 0.589700 19.752001 32.886997 29.305000 # 2 
6745 1 1 -1.179400 0.000000 36.090000 33.084000 # 1 
6746 1 2 0.589700 0.029000 35.291000 33.610001 # 2 
6747 1 2 0.589700 0.799000 36.061001 32.557999 # 2 
6748 1 1 -1.179400 2.320000 36.090000 28.653000 # 1 
6749 1 2 0.589700 1.530000 36.091999 28.113001 # 2 
6750 1 2 0.589700 2.815000 35.327999 28.351000 # 2 
6751 1 1 -1.179400 9.710000 36.090000 28.653000 # 1 
6752 1 2 0.589700 9.211000 35.320000 28.381001 # 2 
6753 1 2 0.589700 9.692000 36.062000 29.609001 # 2 
6754 1 1 -1.179400 0.000000 45.798996 25.481998 # 1 
6755 1 2 0.589700 0.782000 45.320000 25.755001 # 2 
6756 1 2 0.589700 0.002000 46.588997 26.021999 # 2 
6757 1 1 -1.179400 0.000000 45.798996 34.667999 # 1 
6758 1 2 0.589700 0.786000 45.316002 34.411999 # 2 
6759 1 2 0.589700 0.014000 45.790001 35.625000 # 2 
6760 1 1 -1.179400 6.015000 45.114002 24.059999 # 1 
6761 1 2 0.589700 6.044001 45.639999 24.858999 # 2 
6762 1 2 0.589700 6.814000 44.587997 24.089001 # 2 
6763 1 1 -1.179400 6.015000 37.512001 26.380999 # 1 
6764 1 2 0.589700 5.233000 37.785000 26.860001 # 2 
6765 1 2 0.589700 6.013000 38.052002 25.591000 # 2 
6766 1 1 -1.179400 6.015000 46.697998 26.380999 # 1 
6767 1 2 0.589700 5.229000 46.441998 26.863998 # 2 
6768 1 2 0.589700 6.001000 47.654999 26.389000 # 2 
6769 1 1 -1.179400 6.015000 37.512001 33.769001 # 1 
6770 1 2 0.589700 6.801000 37.767998 33.285999 # 2 
6771 1 2 0.589700 6.029000 36.555000 33.759998 # 2 
6772 1 1 -1.179400 6.015000 46.697998 33.769001 # 1 
6773 1 2 0.589700 6.017000 46.157997 34.558998 # 2 
6774 1 2 0.589700 6.797000 46.424999 33.290001 # 2 
6775 1 1 -1.179400 3.695000 40.682999 24.059999 # 1 
6776 1 2 0.589700 3.196000 40.410999 24.830000 # 2 
6777 1 2 0.589700 3.677000 41.639000 24.087999 # 2 
6778 1 1 -1.179400 2.320000 36.090000 31.497000 # 1 
6779 1 2 0.589700 2.819000 36.860001 31.768999 # 2 
6780 1 2 0.589700 2.338000 36.118000 30.541000 # 2 
6781 1 1 -1.179400 2.263000 39.803001 26.270000 # 1 
6782 1 2 0.589700 2.781000 39.215000 26.819000 # 2 
6783 1 2 0.589700 1.497000 39.285999 26.021000 # 2 
6784 1 1 -1.179400 2.263000 39.803001 33.880001 # 1 
6785 1 2 0.589700 2.721000 40.084000 34.673000 # 2 
6786 1 2 0.589700 1.495000 39.330002 34.202000 # 2 
6787 1 1 -1.179400 2.263000 44.407001 26.270000 # 1 
6788 1 2 0.589700 1.995000 43.621002 26.746002 # 2 
6789 1 2 0.589700 2.753000 44.076000 25.515999 # 2 
6790 1 1 -1.179400 2.263000 44.407001 33.880001 # 1 
6791 1 2 0.589700 2.807000 44.934002 33.294998 # 2 
6792 1 2 0.589700 2.004000 43.653000 33.352001 # 2 
6793 1 1 -1.179400 3.752000 38.299999 27.773001 # 1 
6794 1 2 0.589700 4.019000 38.776001 28.559000 # 2 
6795 1 2 0.589700 3.262000 37.546001 28.104000 # 2 
6796 1 1 -1.179400 3.752000 45.910000 27.773001 # 1 
6797 1 2 0.589700 4.011000 45.382000 28.527000 # 2 
6798 1 2 0.589700 3.208000 45.324997 27.246000 # 2 
6799 1 1 -1.179400 3.752000 38.299999 32.376999 # 1 
6800 1 2 0.589700 4.518000 38.050999 32.893997 # 2 
6801 1 2 0.589700 3.234000 38.848999 32.965000 # 2 
6802 1 1 -1.179400 3.752000 45.910000 32.376999 # 1 
6803 1 2 0.589700 4.520000 46.231998 32.850002 # 2 
6804 1 2 0.589700 3.294000 46.702999 32.096001 # 2 
6805 1 1 -1.179400 8.335000 40.682999 24.059999 # 1 
6806 1 2 0.589700 8.830000 40.380997 24.821999 # 2 
6807 1 2 0.589700 7.545000 40.142998 24.058001 # 2 
6808 1 1 -1.179400 9.710000 36.090000 31.497000 # 1 
6809 1 2 0.589700 9.215000 36.852001 31.799000 # 2 
6810 1 2 0.589700 10.500000 36.087997 32.037003 # 2 
6811 1 1 -1.179400 9.767000 39.803001 26.270000 # 1 
6812 1 2 0.589700 10.025999 40.556999 26.798000 # 2 
6813 1 2 0.589700 9.223000 39.276001 26.855000 # 2 
6814 1 1 -1.179400 9.767000 39.803001 33.880001 # 1 
6815 1 2 0.589700 9.277000 40.134003 34.634003 # 2 
6816 1 2 0.589700 10.035000 40.588997 33.403999 # 2 
6817 1 1 -1.179400 9.767000 44.407001 26.270000 # 1 
6818 1 2 0.589700 10.535000 44.879997 25.948000 # 2 
6819 1 2 0.589700 9.309000 44.125999 25.476999 # 2 
6820 1 1 -1.179400 9.767000 44.407001 33.880001 # 1 
6821 1 2 0.589700 10.533000 44.924004 34.128998 # 2 
6822 1 2 0.589700 9.248000 44.994999 33.331001 # 2 
6823 1 1 -1.179400 8.278000 38.299999 27.773001 # 1 
6824 1 2 0.589700 8.736000 37.507000 28.053999 # 2 
6825 1 2 0.589700 7.510000 37.978001 27.299999 # 2 
6826 1 1 -1.179400 8.278000 45.910000 27.773001 # 1 
6827 1 2 0.589700 7.512000 46.159000 27.256001 # 2 
6828 1 2 0.589700 8.797000 45.361000 27.184999 # 2 
6829 1 1 -1.179400 8.278000 38.299999 32.376999 # 1 
6830 1 2 0.589700 8.019000 38.828003 31.623001 # 2 
6831 1 2 0.589700 8.822000 38.884998 32.903999 # 2 
6832 1 1 -1.179400 8.278000 45.910000 32.376999 # 1 
6833 1 2 0.589700 8.768000 46.664001 32.046001 # 2 
6834 1 2 0.589700 8.011000 45.433998 31.591000 # 2 
6835 1 1 -1.179400 3.006000 42.104996 30.074999 # 1 
6836 1 2 0.589700 3.532000 42.903999 30.046001 # 2 
6837 1 2 0.589700 2.480000 42.133999 29.275999 # 2 
6838 1 1 -1.179400 9.024000 42.104996 30.074999 # 1 
6839 1 2 0.589700 9.550000 42.076000 30.874001 # 2 
6840 1 2 0.589700 8.498000 41.306000 30.104000 # 2 
6841 1 1 -1.179400 1.422000 42.104996 32.396000 # 1 
6842 1 2 0.589700 1.964000 42.099998 31.607000 # 2 
6843 1 2 0.589700 1.707000 41.334999 32.888000 # 2 
6844 1 1 -1.179400 10.608000 42.104996 32.396000 # 1 
6845 1 2 0.589700 10.347000 42.878998 32.895000 # 2 
6846 1 2 0.589700 11.565000 42.122997 32.407001 # 2 
6847 1 1 -1.179400 1.422000 42.104996 27.754000 # 1 
6848 1 2 0.589700 0.465000 42.087002 27.743000 # 2 
6849 1 2 0.589700 1.683000 41.331001 27.255001 # 2 
6850 1 1 -1.179400 10.608000 42.104996 27.754000 # 1 
6851 1 2 0.589700 10.066000 42.110001 28.542999 # 2 
6852 1 2 0.589700 10.323000 42.875000 27.262001 # 2 
6853 1 1 -1.179400 4.593000 39.785000 30.074999 # 1 
6854 1 2 0.589700 4.050000 40.573002 30.079998 # 2 
6855 1 2 0.589700 4.308000 39.292999 30.845001 # 2 
6856 1 1 -1.179400 7.437000 39.785000 30.074999 # 1 
6857 1 2 0.589700 6.480000 39.772999 30.057001 # 2 
6858 1 2 0.589700 7.698000 39.285000 29.300999 # 2 
6859 1 1 -1.179400 4.593000 44.425003 30.074999 # 1 
6860 1 2 0.589700 4.332000 44.924999 30.848999 # 2 
6861 1 2 0.589700 5.550000 44.436996 30.093000 # 2 
6862 1 1 -1.179400 7.437000 44.425003 30.074999 # 1 
6863 1 2 0.589700 7.980000 43.637001 30.070000 # 2 
6864 1 2 0.589700 7.722000 44.917000 29.305000 # 2 
6865 1 1 -1.179400 0.000000 33.769001 25.481998 # 1 
6866 1 2 0.589700 0.782000 33.290001 25.755001 # 2 
6867 1 2 0.589700 0.002000 34.558998 26.021999 # 2 
6868 1 1 -1.179400 0.000000 33.769001 34.667999 # 1 
6869 1 2 0.589700 0.786000 33.285999 34.411999 # 2 
6870 1 2 0.589700 0.014000 33.759998 35.625000 # 2 
6871 1 1 -1.179400 6.015000 33.084000 24.059999 # 1 
6872 1 2 0.589700 6.044001 33.610001 24.858999 # 2 
6873 1 2 0.589700 6.814000 32.557999 24.089001 # 2 
6874 1 1 -1.179400 6.015000 25.481998 26.380999 # 1 
6875 1 2 0.589700 5.233000 25.755001 26.860001 # 2 
6876 1 2 0.589700 6.013000 26.021999 25.591000 # 2 
6877 1 1 -1.179400 6.015000 34.667999 26.380999 # 1 
6878 1 2 0.589700 5.229000 34.411999 26.863998 # 2 
6879 1 2 0.589700 6.001000 35.625000 26.389000 # 2 
6880 1 1 -1.179400 6.015000 25.481998 33.769001 # 1 
6881 1 2 0.589700 6.801000 25.738001 33.285999 # 2 
6882 1 2 0.589700 6.029000 24.525002 33.759998 # 2 
6883 1 1 -1.179400 6.015000 34.667999 33.769001 # 1 
6884 1 2 0.589700 6.017000 34.128002 34.558998 # 2 
6885 1 2 0.589700 6.797000 34.395000 33.290001 # 2 
6886 1 1 -1.179400 3.695000 28.653000 24.059999 # 1 
6887 1 2 0.589700 3.196000 28.381001 24.830000 # 2 
6888 1 2 0.589700 3.677000 29.609001 24.087999 # 2 
6889 1 1 -1.179400 2.320000 24.059999 31.497000 # 1 
6890 1 2 0.589700 2.819000 24.830000 31.768999 # 2 
6891 1 2 0.589700 2.338000 24.087999 30.541000 # 2 
6892 1 1 -1.179400 2.263000 27.773001 26.270000 # 1 
6893 1 2 0.589700 2.781000 27.184999 26.819000 # 2 
6894 1 2 0.589700 1.497000 27.256001 26.021000 # 2 
6895 1 1 -1.179400 2.263000 27.773001 33.880001 # 1 
6896 1 2 0.589700 2.721000 28.053999 34.673000 # 2 
6897 1 2 0.589700 1.495000 27.299999 34.202000 # 2 
6898 1 1 -1.179400 2.263000 32.376999 26.270000 # 1 
6899 1 2 0.589700 1.995000 31.591000 26.746002 # 2 
6900 1 2 0.589700 2.753000 32.046001 25.515999 # 2 
6901 1 1 -1.179400 2.263000 32.376999 33.880001 # 1 
6902 1 2 0.589700 2.807000 32.903999 33.294998 # 2 
6903 1 2 0.589700 2.004000 31.623001 33.352001 # 2 
6904 1 1 -1.179400 3.752000 26.270000 27.773001 # 1 
6905 1 2 0.589700 4.019000 26.746002 28.559000 # 2 
6906 1 2 0.589700 3.262000 25.515999 28.104000 # 2 
6907 1 1 -1.179400 3.752000 33.880001 27.773001 # 1 
6908 1 2 0.589700 4.011000 33.352001 28.527000 # 2 
6909 1 2 0.589700 3.208000 33.294998 27.246000 # 2 
6910 1 1 -1.179400 3.752000 26.270000 32.376999 # 1 
6911 1 2 0.589700 4.518000 26.021000 32.893997 # 2 
6912 1 2 0.589700 3.234000 26.819000 32.965000 # 2 
6913 1 1 -1.179400 3.752000 33.880001 32.376999 # 1 
6914 1 2 0.589700 4.520000 34.202000 32.850002 # 2 
6915 1 2 0.589700 3.294000 34.673000 32.096001 # 2 
6916 1 1 -1.179400 8.335000 28.653000 24.059999 # 1 
6917 1 2 0.589700 8.830000 28.351000 24.821999 # 2 
6918 1 2 0.589700 7.545000 28.113001 24.058001 # 2 
6919 1 1 -1.179400 9.710000 24.059999 31.497000 # 1 
6920 1 2 0.589700 9.215000 24.821999 31.799000 # 2 
6921 1 2 0.589700 10.500000 24.058001 32.037003 # 2 
6922 1 1 -1.179400 9.767000 27.773001 26.270000 # 1 
6923 1 2 0.589700 10.025999 28.527000 26.798000 # 2 
6924 1 2 0.589700 9.223000 27.246000 26.855000 # 2 
6925 1 1 -1.179400 9.767000 27.773001 33.880001 # 1 
6926 1 2 0.589700 9.277000 28.104000 34.634003 # 2 
6927 1 2 0.589700 10.035000 28.559000 33.403999 # 2 
6928 1 1 -1.179400 9.767000 32.376999 26.270000 # 1 
6929 1 2 0.589700 10.535000 32.850002 25.948000 # 2 
6930 1 2 0.589700 9.309000 32.096001 25.476999 # 2 
6931 1 1 -1.179400 9.767000 32.376999 33.880001 # 1 
6932 1 2 0.589700 10.533000 32.893997 34.128998 # 2 
6933 1 2 0.589700 9.248000 32.965000 33.331001 # 2 
6934 1 1 -1.179400 8.278000 26.270000 27.773001 # 1 
6935 1 2 0.589700 8.736000 25.476999 28.053999 # 2 
6936 1 2 0.589700 7.510000 25.948000 27.299999 # 2 
6937 1 1 -1.179400 8.278000 33.880001 27.773001 # 1 
6938 1 2 0.589700 7.512000 34.128998 27.256001 # 2 
6939 1 2 0.589700 8.797000 33.331001 27.184999 # 2 
6940 1 1 -1.179400 8.278000 26.270000 32.376999 # 1 
6941 1 2 0.589700 8.019000 26.798000 31.623001 # 2 
6942 1 2 0.589700 8.822000 26.855000 32.903999 # 2 
6943 1 1 -1.179400 8.278000 33.880001 32.376999 # 1 
6944 1 2 0.589700 8.768000 34.634003 32.046001 # 2 
6945 1 2 0.589700 8.011000 33.403999 31.591000 # 2 
6946 1 1 -1.179400 3.006000 30.074999 30.074999 # 1 
6947 1 2 0.589700 3.532000 30.874001 30.046001 # 2 
6948 1 2 0.589700 2.480000 30.104000 29.275999 # 2 
6949 1 1 -1.179400 9.024000 30.074999 30.074999 # 1 
6950 1 2 0.589700 9.550000 30.046001 30.874001 # 2 
6951 1 2 0.589700 8.498000 29.275999 30.104000 # 2 
6952 1 1 -1.179400 1.422000 30.074999 32.396000 # 1 
6953 1 2 0.589700 1.964000 30.070000 31.607000 # 2 
6954 1 2 0.589700 1.707000 29.305000 32.888000 # 2 
6955 1 1 -1.179400 10.608000 30.074999 32.396000 # 1 
6956 1 2 0.589700 10.347000 30.848999 32.895000 # 2 
6957 1 2 0.589700 11.565000 30.093000 32.407001 # 2 
6958 1 1 -1.179400 1.422000 30.074999 27.754000 # 1 
6959 1 2 0.589700 0.465000 30.057001 27.743000 # 2 
6960 1 2 0.589700 1.683000 29.300999 27.255001 # 2 
6961 1 1 -1.179400 10.608000 30.074999 27.754000 # 1 
6962 1 2 0.589700 10.066000 30.079998 28.542999 # 2 
6963 1 2 0.589700 10.323000 30.845001 27.262001 # 2 
6964 1 1 -1.179400 4.593000 27.755001 30.074999 # 1 
6965 1 2 0.589700 4.050000 28.542999 30.079998 # 2 
6966 1 2 0.589700 4.308000 27.263000 30.845001 # 2 
6967 1 1 -1.179400 7.437000 27.755001 30.074999 # 1 
6968 1 2 0.589700 6.480000 27.743000 30.057001 # 2 
6969 1 2 0.589700 7.698000 27.255001 29.300999 # 2 
6970 1 1 -1.179400 4.593000 32.395000 30.074999 # 1 
6971 1 2 0.589700 4.332000 32.895000 30.848999 # 2 
6972 1 2 0.589700 5.550000 32.407001 30.093000 # 2 
6973 1 1 -1.179400 7.437000 32.395000 30.074999 # 1 
6974 1 2 0.589700 7.980000 31.607000 30.070000 # 2 
6975 1 2 0.589700 7.722000 32.886997 29.305000 # 2 
6976 1 1 -1.179400 6.015000 27.066000 36.090000 # 1 
6977 1 2 0.589700 5.986000 26.540001 35.291000 # 2 
6978 1 2 0.589700 5.216000 27.592001 36.061001 # 2 
6979 1 1 -1.179400 3.695000 31.497000 36.090000 # 1 
6980 1 2 0.589700 4.485000 32.037003 36.091999 # 2 
6981 1 2 0.589700 3.200000 31.799000 35.327999 # 2 
6982 1 1 -1.179400 8.335000 31.497000 36.090000 # 1 
6983 1 2 0.589700 8.834000 31.768999 35.320000 # 2 
6984 1 2 0.589700 8.353000 30.541000 36.062000 # 2 
6985 1 1 -1.179400 0.000000 33.769001 37.512001 # 1 
6986 1 2 0.589700 0.782000 33.290001 37.785000 # 2 
6987 1 2 0.589700 0.002000 34.558998 38.052002 # 2 
6988 1 1 -1.179400 0.000000 33.769001 46.697998 # 1 
6989 1 2 0.589700 0.786000 33.285999 46.441998 # 2 
6990 1 2 0.589700 0.014000 33.759998 47.654999 # 2 
6991 1 1 -1.179400 6.015000 33.084000 36.090000 # 1 
6992 1 2 0.589700 6.044001 33.610001 36.889000 # 2 
6993 1 2 0.589700 6.814000 32.557999 36.118999 # 2 
6994 1 1 -1.179400 6.015000 25.481998 38.410999 # 1 
6995 1 2 0.589700 5.233000 25.755001 38.889999 # 2 
6996 1 2 0.589700 6.013000 26.021999 37.620998 # 2 
6997 1 1 -1.179400 6.015000 34.667999 38.410999 # 1 
6998 1 2 0.589700 5.229000 34.411999 38.894001 # 2 
6999 1 2 0.589700 6.001000 35.625000 38.419003 # 2 
7000 1 1 -1.179400 6.015000 25.481998 45.798996 # 1 
7001 1 2 0.589700 6.801000 25.738001 45.316002 # 2 
7002 1 2 0.589700 6.029000 24.525002 45.790001 # 2 
7003 1 1 -1.179400 6.015000 34.667999 45.798996 # 1 
7004 1 2 0.589700 6.017000 34.128002 46.588997 # 2 
7005 1 2 0.589700 6.797000 34.395000 45.320000 # 2 
7006 1 1 -1.179400 3.695000 28.653000 36.090000 # 1 
7007 1 2 0.589700 3.196000 28.381001 36.860001 # 2 
7008 1 2 0.589700 3.677000 29.609001 36.118000 # 2 
7009 1 1 -1.179400 2.320000 24.059999 43.526997 # 1 
7010 1 2 0.589700 2.819000 24.830000 43.799000 # 2 
7011 1 2 0.589700 2.338000 24.087999 42.570999 # 2 
7012 1 1 -1.179400 2.263000 27.773001 38.299999 # 1 
7013 1 2 0.589700 2.781000 27.184999 38.848999 # 2 
7014 1 2 0.589700 1.497000 27.256001 38.050999 # 2 
7015 1 1 -1.179400 2.263000 27.773001 45.910000 # 1 
7016 1 2 0.589700 2.721000 28.053999 46.702999 # 2 
7017 1 2 0.589700 1.495000 27.299999 46.231998 # 2 
7018 1 1 -1.179400 2.263000 32.376999 38.299999 # 1 
7019 1 2 0.589700 1.995000 31.591000 38.776001 # 2 
7020 1 2 0.589700 2.753000 32.046001 37.546001 # 2 
7021 1 1 -1.179400 2.263000 32.376999 45.910000 # 1 
7022 1 2 0.589700 2.807000 32.903999 45.324997 # 2 
7023 1 2 0.589700 2.004000 31.623001 45.382000 # 2 
7024 1 1 -1.179400 3.752000 26.270000 39.803001 # 1 
7025 1 2 0.589700 4.019000 26.746002 40.588997 # 2 
7026 1 2 0.589700 3.262000 25.515999 40.134003 # 2 
7027 1 1 -1.179400 3.752000 33.880001 39.803001 # 1 
7028 1 2 0.589700 4.011000 33.352001 40.556999 # 2 
7029 1 2 0.589700 3.208000 33.294998 39.276001 # 2 
7030 1 1 -1.179400 3.752000 26.270000 44.407001 # 1 
7031 1 2 0.589700 4.518000 26.021000 44.924004 # 2 
7032 1 2 0.589700 3.234000 26.819000 44.994999 # 2 
7033 1 1 -1.179400 3.752000 33.880001 44.407001 # 1 
7034 1 2 0.589700 4.520000 34.202000 44.879997 # 2 
7035 1 2 0.589700 3.294000 34.673000 44.125999 # 2 
7036 1 1 -1.179400 8.335000 28.653000 36.090000 # 1 
7037 1 2 0.589700 8.830000 28.351000 36.852001 # 2 
7038 1 2 0.589700 7.545000 28.113001 36.087997 # 2 
7039 1 1 -1.179400 9.710000 24.059999 43.526997 # 1 
7040 1 2 0.589700 9.215000 24.821999 43.828999 # 2 
7041 1 2 0.589700 10.500000 24.058001 44.067001 # 2 
7042 1 1 -1.179400 9.767000 27.773001 38.299999 # 1 
7043 1 2 0.589700 10.025999 28.527000 38.828003 # 2 
7044 1 2 0.589700 9.223000 27.246000 38.884998 # 2 
7045 1 1 -1.179400 9.767000 27.773001 45.910000 # 1 
7046 1 2 0.589700 9.277000 28.104000 46.664001 # 2 
7047 1 2 0.589700 10.035000 28.559000 45.433998 # 2 
7048 1 1 -1.179400 9.767000 32.376999 38.299999 # 1 
7049 1 2 0.589700 10.535000 32.850002 37.978001 # 2 
7050 1 2 0.589700 9.309000 32.096001 37.507000 # 2 
7051 1 1 -1.179400 9.767000 32.376999 45.910000 # 1 
7052 1 2 0.589700 10.533000 32.893997 46.159000 # 2 
7053 1 2 0.589700 9.248000 32.965000 45.361000 # 2 
7054 1 1 -1.179400 8.278000 26.270000 39.803001 # 1 
7055 1 2 0.589700 8.736000 25.476999 40.084000 # 2 
7056 1 2 0.589700 7.510000 25.948000 39.330002 # 2 
7057 1 1 -1.179400 8.278000 33.880001 39.803001 # 1 
7058 1 2 0.589700 7.512000 34.128998 39.285999 # 2 
7059 1 2 0.589700 8.797000 33.331001 39.215000 # 2 
7060 1 1 -1.179400 8.278000 26.270000 44.407001 # 1 
7061 1 2 0.589700 8.019000 26.798000 43.653000 # 2 
7062 1 2 0.589700 8.822000 26.855000 44.934002 # 2 
7063 1 1 -1.179400 8.278000 33.880001 44.407001 # 1 
7064 1 2 0.589700 8.768000 34.634003 44.076000 # 2 
7065 1 2 0.589700 8.011000 33.403999 43.621002 # 2 
7066 1 1 -1.179400 3.006000 30.074999 42.104996 # 1 
7067 1 2 0.589700 3.532000 30.874001 42.076000 # 2 
7068 1 2 0.589700 2.480000 30.104000 41.306000 # 2 
7069 1 1 -1.179400 9.024000 30.074999 42.104996 # 1 
7070 1 2 0.589700 9.550000 30.046001 42.903999 # 2 
7071 1 2 0.589700 8.498000 29.275999 42.133999 # 2 
7072 1 1 -1.179400 1.422000 30.074999 44.426003 # 1 
7073 1 2 0.589700 1.964000 30.070000 43.637001 # 2 
7074 1 2 0.589700 1.707000 29.305000 44.917999 # 2 
7075 1 1 -1.179400 10.608000 30.074999 44.426003 # 1 
7076 1 2 0.589700 10.347000 30.848999 44.924999 # 2 
7077 1 2 0.589700 11.565000 30.093000 44.436996 # 2 
7078 1 1 -1.179400 1.422000 30.074999 39.784000 # 1 
7079 1 2 0.589700 0.465000 30.057001 39.772999 # 2 
7080 1 2 0.589700 1.683000 29.300999 39.285000 # 2 
7081 1 1 -1.179400 10.608000 30.074999 39.784000 # 1 
7082 1 2 0.589700 10.066000 30.079998 40.573002 # 2 
7083 1 2 0.589700 10.323000 30.845001 39.292000 # 2 
7084 1 1 -1.179400 4.593000 27.755001 42.104996 # 1 
7085 1 2 0.589700 4.050000 28.542999 42.110001 # 2 
7086 1 2 0.589700 4.308000 27.263000 42.875000 # 2 
7087 1 1 -1.179400 7.437000 27.755001 42.104996 # 1 
7088 1 2 0.589700 6.480000 27.743000 42.087002 # 2 
7089 1 2 0.589700 7.698000 27.255001 41.331001 # 2 
7090 1 1 -1.179400 4.593000 32.395000 42.104996 # 1 
7091 1 2 0.589700 4.332000 32.895000 42.878998 # 2 
7092 1 2 0.589700 5.550000 32.407001 42.122997 # 2 
7093 1 1 -1.179400 7.437000 32.395000 42.104996 # 1 
7094 1 2 0.589700 7.980000 31.607000 42.099998 # 2 
7095 1 2 0.589700 7.722000 32.886997 41.334999 # 2 
7096 1 1 -1.179400 24.059999 24.059999 27.066000 # 1 
7097 1 2 0.589700 23.261002 24.089001 27.592001 # 2 
7098 1 2 0.589700 24.031000 24.858999 26.540001 # 2 
7099 1 1 -1.179400 24.059999 26.380999 25.481998 # 1 
7100 1 2 0.589700 23.274000 26.863998 25.738001 # 2 
7101 1 2 0.589700 24.046000 26.389000 24.525002 # 2 
7102 1 1 -1.179400 24.059999 26.380999 34.667999 # 1 
7103 1 2 0.589700 23.278000 26.860001 34.395000 # 2 
7104 1 2 0.589700 24.058001 25.591000 34.128002 # 2 
7105 1 1 -1.179400 12.030000 36.090000 33.084000 # 1 
7106 1 2 0.589700 12.059000 35.291000 33.610001 # 2 
7107 1 2 0.589700 12.829000 36.061001 32.557999 # 2 
7108 1 1 -1.179400 14.349999 36.090000 28.653000 # 1 
7109 1 2 0.589700 13.559999 36.091999 28.113001 # 2 
7110 1 2 0.589700 14.845000 35.327999 28.351000 # 2 
7111 1 1 -1.179400 21.740000 36.090000 28.653000 # 1 
7112 1 2 0.589700 21.240999 35.320000 28.381001 # 2 
7113 1 2 0.589700 21.722000 36.062000 29.609001 # 2 
7114 1 1 -1.179400 12.030000 36.090000 27.066000 # 1 
7115 1 2 0.589700 11.231001 36.118999 27.592001 # 2 
7116 1 2 0.589700 12.000999 36.889000 26.540001 # 2 
7117 1 1 -1.179400 12.030000 38.410999 25.481998 # 1 
7118 1 2 0.589700 11.244000 38.894001 25.738001 # 2 
7119 1 2 0.589700 12.016000 38.419003 24.525002 # 2 
7120 1 1 -1.179400 12.030000 38.410999 34.667999 # 1 
7121 1 2 0.589700 11.247999 38.889999 34.395000 # 2 
7122 1 2 0.589700 12.028000 37.620998 34.128002 # 2 
7123 1 1 -1.179400 12.030000 45.798996 25.481998 # 1 
7124 1 2 0.589700 12.812000 45.320000 25.755001 # 2 
7125 1 2 0.589700 12.032000 46.588997 26.021999 # 2 
7126 1 1 -1.179400 12.030000 45.798996 34.667999 # 1 
7127 1 2 0.589700 12.816000 45.316002 34.411999 # 2 
7128 1 2 0.589700 12.044000 45.790001 35.625000 # 2 
7129 1 1 -1.179400 18.045000 45.114002 24.059999 # 1 
7130 1 2 0.589700 18.073999 45.639999 24.858999 # 2 
7131 1 2 0.589700 18.844000 44.587997 24.089001 # 2 
7132 1 1 -1.179400 18.045000 37.512001 26.380999 # 1 
7133 1 2 0.589700 17.263000 37.785000 26.860001 # 2 
7134 1 2 0.589700 18.042999 38.052002 25.591000 # 2 
7135 1 1 -1.179400 18.045000 46.697998 26.380999 # 1 
7136 1 2 0.589700 17.259001 46.441998 26.863998 # 2 
7137 1 2 0.589700 18.031000 47.654999 26.389000 # 2 
7138 1 1 -1.179400 18.045000 37.512001 33.769001 # 1 
7139 1 2 0.589700 18.831001 37.767998 33.285999 # 2 
7140 1 2 0.589700 18.059000 36.555000 33.759998 # 2 
7141 1 1 -1.179400 18.045000 46.697998 33.769001 # 1 
7142 1 2 0.589700 18.047001 46.157997 34.558998 # 2 
7143 1 2 0.589700 18.827000 46.424999 33.290001 # 2 
7144 1 1 -1.179400 15.725000 40.682999 24.059999 # 1 
7145 1 2 0.589700 15.226001 40.410999 24.830000 # 2 
7146 1 2 0.589700 15.707001 41.639000 24.087999 # 2 
7147 1 1 -1.179400 14.349999 36.090000 31.497000 # 1 
7148 1 2 0.589700 14.849000 36.860001 31.768999 # 2 
7149 1 2 0.589700 14.368000 36.118000 30.541000 # 2 
7150 1 1 -1.179400 14.292999 39.803001 26.270000 # 1 
7151 1 2 0.589700 14.811000 39.215000 26.819000 # 2 
7152 1 2 0.589700 13.527000 39.285999 26.021000 # 2 
7153 1 1 -1.179400 14.292999 39.803001 33.880001 # 1 
7154 1 2 0.589700 14.751000 40.084000 34.673000 # 2 
7155 1 2 0.589700 13.525000 39.330002 34.202000 # 2 
7156 1 1 -1.179400 14.292999 44.407001 26.270000 # 1 
7157 1 2 0.589700 14.025001 43.621002 26.746002 # 2 
7158 1 2 0.589700 14.783000 44.076000 25.515999 # 2 
7159 1 1 -1.179400 14.292999 44.407001 33.880001 # 1 
7160 1 2 0.589700 14.837000 44.934002 33.294998 # 2 
7161 1 2 0.589700 14.033999 43.653000 33.352001 # 2 
7162 1 1 -1.179400 15.782000 38.299999 27.773001 # 1 
7163 1 2 0.589700 16.049000 38.776001 28.559000 # 2 
7164 1 2 0.589700 15.292000 37.546001 28.104000 # 2 
7165 1 1 -1.179400 15.782000 45.910000 27.773001 # 1 
7166 1 2 0.589700 16.041000 45.382000 28.527000 # 2 
7167 1 2 0.589700 15.238000 45.324997 27.246000 # 2 
7168 1 1 -1.179400 15.782000 38.299999 32.376999 # 1 
7169 1 2 0.589700 16.548000 38.050999 32.893997 # 2 
7170 1 2 0.589700 15.264000 38.848999 32.965000 # 2 
7171 1 1 -1.179400 15.782000 45.910000 32.376999 # 1 
7172 1 2 0.589700 16.549999 46.231998 32.850002 # 2 
7173 1 2 0.589700 15.324000 46.702999 32.096001 # 2 
7174 1 1 -1.179400 20.365000 40.682999 24.059999 # 1 
7175 1 2 0.589700 20.860001 40.380997 24.821999 # 2 
7176 1 2 0.589700 19.575001 40.142998 24.058001 # 2 
7177 1 1 -1.179400 21.740000 36.090000 31.497000 # 1 
7178 1 2 0.589700 21.245001 36.852001 31.799000 # 2 
7179 1 2 0.589700 22.530001 36.087997 32.037003 # 2 
7180 1 1 -1.179400 21.797001 39.803001 26.270000 # 1 
7181 1 2 0.589700 22.056000 40.556999 26.798000 # 2 
7182 1 2 0.589700 21.252998 39.276001 26.855000 # 2 
7183 1 1 -1.179400 21.797001 39.803001 33.880001 # 1 
7184 1 2 0.589700 21.307001 40.134003 34.634003 # 2 
7185 1 2 0.589700 22.065001 40.588997 33.403999 # 2 
7186 1 1 -1.179400 21.797001 44.407001 26.270000 # 1 
7187 1 2 0.589700 22.565001 44.879997 25.948000 # 2 
7188 1 2 0.589700 21.338999 44.125999 25.476999 # 2 
7189 1 1 -1.179400 21.797001 44.407001 33.880001 # 1 
7190 1 2 0.589700 22.563000 44.924004 34.128998 # 2 
7191 1 2 0.589700 21.278000 44.994999 33.331001 # 2 
7192 1 1 -1.179400 20.308001 38.299999 27.773001 # 1 
7193 1 2 0.589700 20.766001 37.507000 28.053999 # 2 
7194 1 2 0.589700 19.540001 37.978001 27.299999 # 2 
7195 1 1 -1.179400 20.308001 45.910000 27.773001 # 1 
7196 1 2 0.589700 19.542000 46.159000 27.256001 # 2 
7197 1 2 0.589700 20.827000 45.361000 27.184999 # 2 
7198 1 1 -1.179400 20.308001 38.299999 32.376999 # 1 
7199 1 2 0.589700 20.049000 38.828003 31.623001 # 2 
7200 1 2 0.589700 20.852001 38.884998 32.903999 # 2 
7201 1 1 -1.179400 20.308001 45.910000 32.376999 # 1 
7202 1 2 0.589700 20.797998 46.664001 32.046001 # 2 
7203 1 2 0.589700 20.041000 45.433998 31.591000 # 2 
7204 1 1 -1.179400 15.036000 42.104996 30.074999 # 1 
7205 1 2 0.589700 15.562000 42.903999 30.046001 # 2 
7206 1 2 0.589700 14.510000 42.133999 29.275999 # 2 
7207 1 1 -1.179400 21.054001 42.104996 30.074999 # 1 
7208 1 2 0.589700 21.580000 42.076000 30.874001 # 2 
7209 1 2 0.589700 20.528000 41.306000 30.104000 # 2 
7210 1 1 -1.179400 13.452001 42.104996 32.396000 # 1 
7211 1 2 0.589700 13.993999 42.099998 31.607000 # 2 
7212 1 2 0.589700 13.737000 41.334999 32.888000 # 2 
7213 1 1 -1.179400 22.637999 42.104996 32.396000 # 1 
7214 1 2 0.589700 22.376999 42.878998 32.895000 # 2 
7215 1 2 0.589700 23.594999 42.122997 32.407001 # 2 
7216 1 1 -1.179400 13.452001 42.104996 27.754000 # 1 
7217 1 2 0.589700 12.495001 42.087002 27.743000 # 2 
7218 1 2 0.589700 13.712999 41.331001 27.255001 # 2 
7219 1 1 -1.179400 22.637999 42.104996 27.754000 # 1 
7220 1 2 0.589700 22.096001 42.110001 28.542999 # 2 
7221 1 2 0.589700 22.353001 42.875000 27.262001 # 2 
7222 1 1 -1.179400 16.622999 39.785000 30.074999 # 1 
7223 1 2 0.589700 16.080000 40.573002 30.079998 # 2 
7224 1 2 0.589700 16.338001 39.292999 30.845001 # 2 
7225 1 1 -1.179400 19.466999 39.785000 30.074999 # 1 
7226 1 2 0.589700 18.510000 39.772999 30.057001 # 2 
7227 1 2 0.589700 19.728001 39.285000 29.300999 # 2 
7228 1 1 -1.179400 16.622999 44.425003 30.074999 # 1 
7229 1 2 0.589700 16.362000 44.924999 30.848999 # 2 
7230 1 2 0.589700 17.580000 44.436996 30.093000 # 2 
7231 1 1 -1.179400 19.466999 44.425003 30.074999 # 1 
7232 1 2 0.589700 20.009998 43.637001 30.070000 # 2 
7233 1 2 0.589700 19.752001 44.917000 29.305000 # 2 
7234 1 1 -1.179400 18.045000 27.066000 36.090000 # 1 
7235 1 2 0.589700 18.015999 26.540001 35.291000 # 2 
7236 1 2 0.589700 17.246000 27.592001 36.061001 # 2 
7237 1 1 -1.179400 15.725000 31.497000 36.090000 # 1 
7238 1 2 0.589700 16.514999 32.037003 36.091999 # 2 
7239 1 2 0.589700 15.230000 31.799000 35.327999 # 2 
7240 1 1 -1.179400 20.365000 31.497000 36.090000 # 1 
7241 1 2 0.589700 20.864000 31.768999 35.320000 # 2 
7242 1 2 0.589700 20.382999 30.541000 36.062000 # 2 
7243 1 1 -1.179400 12.030000 24.059999 39.096001 # 1 
7244 1 2 0.589700 11.231001 24.089001 39.621998 # 2 
7245 1 2 0.589700 12.000999 24.858999 38.570000 # 2 
7246 1 1 -1.179400 12.030000 26.380999 37.512001 # 1 
7247 1 2 0.589700 11.244000 26.863998 37.767998 # 2 
7248 1 2 0.589700 12.016000 26.389000 36.555000 # 2 
7249 1 1 -1.179400 12.030000 26.380999 46.697998 # 1 
7250 1 2 0.589700 11.247999 26.860001 46.424999 # 2 
7251 1 2 0.589700 12.028000 25.591000 46.157997 # 2 
7252 1 1 -1.179400 12.030000 33.769001 37.512001 # 1 
7253 1 2 0.589700 12.812000 33.290001 37.785000 # 2 
7254 1 2 0.589700 12.032000 34.558998 38.052002 # 2 
7255 1 1 -1.179400 12.030000 33.769001 46.697998 # 1 
7256 1 2 0.589700 12.816000 33.285999 46.441998 # 2 
7257 1 2 0.589700 12.044000 33.759998 47.654999 # 2 
7258 1 1 -1.179400 18.045000 33.084000 36.090000 # 1 
7259 1 2 0.589700 18.073999 33.610001 36.889000 # 2 
7260 1 2 0.589700 18.844000 32.557999 36.118999 # 2 
7261 1 1 -1.179400 18.045000 25.481998 38.410999 # 1 
7262 1 2 0.589700 17.263000 25.755001 38.889999 # 2 
7263 1 2 0.589700 18.042999 26.021999 37.620998 # 2 
7264 1 1 -1.179400 18.045000 34.667999 38.410999 # 1 
7265 1 2 0.589700 17.259001 34.411999 38.894001 # 2 
7266 1 2 0.589700 18.031000 35.625000 38.419003 # 2 
7267 1 1 -1.179400 18.045000 25.481998 45.798996 # 1 
7268 1 2 0.589700 18.831001 25.738001 45.316002 # 2 
7269 1 2 0.589700 18.059000 24.525002 45.790001 # 2 
7270 1 1 -1.179400 18.045000 34.667999 45.798996 # 1 
7271 1 2 0.589700 18.047001 34.128002 46.588997 # 2 
7272 1 2 0.589700 18.827000 34.395000 45.320000 # 2 
7273 1 1 -1.179400 15.725000 28.653000 36.090000 # 1 
7274 1 2 0.589700 15.226001 28.381001 36.860001 # 2 
7275 1 2 0.589700 15.707001 29.609001 36.118000 # 2 
7276 1 1 -1.179400 14.349999 24.059999 43.526997 # 1 
7277 1 2 0.589700 14.849000 24.830000 43.799000 # 2 
7278 1 2 0.589700 14.368000 24.087999 42.570999 # 2 
7279 1 1 -1.179400 14.292999 27.773001 38.299999 # 1 
7280 1 2 0.589700 14.811000 27.184999 38.848999 # 2 
7281 1 2 0.589700 13.527000 27.256001 38.050999 # 2 
7282 1 1 -1.179400 14.292999 27.773001 45.910000 # 1 
7283 1 2 0.589700 14.751000 28.053999 46.702999 # 2 
7284 1 2 0.589700 13.525000 27.299999 46.231998 # 2 
7285 1 1 -1.179400 14.292999 32.376999 38.299999 # 1 
7286 1 2 0.589700 14.025001 31.591000 38.776001 # 2 
7287 1 2 0.589700 14.783000 32.046001 37.546001 # 2 
7288 1 1 -1.179400 14.292999 32.376999 45.910000 # 1 
7289 1 2 0.589700 14.837000 32.903999 45.324997 # 2 
7290 1 2 0.589700 14.033999 31.623001 45.382000 # 2 
7291 1 1 -1.179400 15.782000 26.270000 39.803001 # 1 
7292 1 2 0.589700 16.049000 26.746002 40.588997 # 2 
7293 1 2 0.589700 15.292000 25.515999 40.134003 # 2 
7294 1 1 -1.179400 15.782000 33.880001 39.803001 # 1 
7295 1 2 0.589700 16.041000 33.352001 40.556999 # 2 
7296 1 2 0.589700 15.238000 33.294998 39.276001 # 2 
7297 1 1 -1.179400 15.782000 26.270000 44.407001 # 1 
7298 1 2 0.589700 16.548000 26.021000 44.924004 # 2 
7299 1 2 0.589700 15.264000 26.819000 44.994999 # 2 
7300 1 1 -1.179400 15.782000 33.880001 44.407001 # 1 
7301 1 2 0.589700 16.549999 34.202000 44.879997 # 2 
7302 1 2 0.589700 15.324000 34.673000 44.125999 # 2 
7303 1 1 -1.179400 20.365000 28.653000 36.090000 # 1 
7304 1 2 0.589700 20.860001 28.351000 36.852001 # 2 
7305 1 2 0.589700 19.575001 28.113001 36.087997 # 2 
7306 1 1 -1.179400 21.740000 24.059999 43.526997 # 1 
7307 1 2 0.589700 21.245001 24.821999 43.828999 # 2 
7308 1 2 0.589700 22.530001 24.058001 44.067001 # 2 
7309 1 1 -1.179400 21.797001 27.773001 38.299999 # 1 
7310 1 2 0.589700 22.056000 28.527000 38.828003 # 2 
7311 1 2 0.589700 21.252998 27.246000 38.884998 # 2 
7312 1 1 -1.179400 21.797001 27.773001 45.910000 # 1 
7313 1 2 0.589700 21.307001 28.104000 46.664001 # 2 
7314 1 2 0.589700 22.065001 28.559000 45.433998 # 2 
7315 1 1 -1.179400 21.797001 32.376999 38.299999 # 1 
7316 1 2 0.589700 22.565001 32.850002 37.978001 # 2 
7317 1 2 0.589700 21.338999 32.096001 37.507000 # 2 
7318 1 1 -1.179400 21.797001 32.376999 45.910000 # 1 
7319 1 2 0.589700 22.563000 32.893997 46.159000 # 2 
7320 1 2 0.589700 21.278000 32.965000 45.361000 # 2 
7321 1 1 -1.179400 20.308001 26.270000 39.803001 # 1 
7322 1 2 0.589700 20.766001 25.476999 40.084000 # 2 
7323 1 2 0.589700 19.540001 25.948000 39.330002 # 2 
7324 1 1 -1.179400 20.308001 33.880001 39.803001 # 1 
7325 1 2 0.589700 19.542000 34.128998 39.285999 # 2 
7326 1 2 0.589700 20.827000 33.331001 39.215000 # 2 
7327 1 1 -1.179400 20.308001 26.270000 44.407001 # 1 
7328 1 2 0.589700 20.049000 26.798000 43.653000 # 2 
7329 1 2 0.589700 20.852001 26.855000 44.934002 # 2 
7330 1 1 -1.179400 20.308001 33.880001 44.407001 # 1 
7331 1 2 0.589700 20.797998 34.634003 44.076000 # 2 
7332 1 2 0.589700 20.041000 33.403999 43.621002 # 2 
7333 1 1 -1.179400 15.036000 30.074999 42.104996 # 1 
7334 1 2 0.589700 15.562000 30.874001 42.076000 # 2 
7335 1 2 0.589700 14.510000 30.104000 41.306000 # 2 
7336 1 1 -1.179400 21.054001 30.074999 42.104996 # 1 
7337 1 2 0.589700 21.580000 30.046001 42.903999 # 2 
7338 1 2 0.589700 20.528000 29.275999 42.133999 # 2 
7339 1 1 -1.179400 13.452001 30.074999 44.426003 # 1 
7340 1 2 0.589700 13.993999 30.070000 43.637001 # 2 
7341 1 2 0.589700 13.737000 29.305000 44.917999 # 2 
7342 1 1 -1.179400 22.637999 30.074999 44.426003 # 1 
7343 1 2 0.589700 22.376999 30.848999 44.924999 # 2 
7344 1 2 0.589700 23.594999 30.093000 44.436996 # 2 
7345 1 1 -1.179400 13.452001 30.074999 39.784000 # 1 
7346 1 2 0.589700 12.495001 30.057001 39.772999 # 2 
7347 1 2 0.589700 13.712999 29.300999 39.285000 # 2 
7348 1 1 -1.179400 22.637999 30.074999 39.784000 # 1 
7349 1 2 0.589700 22.096001 30.079998 40.573002 # 2 
7350 1 2 0.589700 22.353001 30.845001 39.292000 # 2 
7351 1 1 -1.179400 16.622999 27.755001 42.104996 # 1 
7352 1 2 0.589700 16.080000 28.542999 42.110001 # 2 
7353 1 2 0.589700 16.338001 27.263000 42.875000 # 2 
7354 1 1 -1.179400 19.466999 27.755001 42.104996 # 1 
7355 1 2 0.589700 18.510000 27.743000 42.087002 # 2 
7356 1 2 0.589700 19.728001 27.255001 41.331001 # 2 
7357 1 1 -1.179400 16.622999 32.395000 42.104996 # 1 
7358 1 2 0.589700 16.362000 32.895000 42.878998 # 2 
7359 1 2 0.589700 17.580000 32.407001 42.122997 # 2 
7360 1 1 -1.179400 19.466999 32.395000 42.104996 # 1 
7361 1 2 0.589700 20.009998 31.607000 42.099998 # 2 
7362 1 2 0.589700 19.752001 32.886997 41.334999 # 2 
7363 1 1 -1.179400 0.000000 48.119999 33.084000 # 1 
7364 1 2 0.589700 0.029000 47.320999 33.610001 # 2 
7365 1 2 0.589700 0.799000 48.091003 32.557999 # 2 
7366 1 1 -1.179400 2.320000 48.119999 28.653000 # 1 
7367 1 2 0.589700 1.530000 48.122002 28.113001 # 2 
7368 1 2 0.589700 2.815000 47.357998 28.351000 # 2 
7369 1 1 -1.179400 9.710000 48.119999 28.653000 # 1 
7370 1 2 0.589700 9.211000 47.350002 28.381001 # 2 
7371 1 2 0.589700 9.692000 48.091999 29.609001 # 2 
7372 1 1 -1.179400 6.015000 39.096001 36.090000 # 1 
7373 1 2 0.589700 5.986000 38.570000 35.291000 # 2 
7374 1 2 0.589700 5.216000 39.621998 36.061001 # 2 
7375 1 1 -1.179400 3.695000 43.526997 36.090000 # 1 
7376 1 2 0.589700 4.485000 44.067001 36.091999 # 2 
7377 1 2 0.589700 3.200000 43.828999 35.327999 # 2 
7378 1 1 -1.179400 8.335000 43.526997 36.090000 # 1 
7379 1 2 0.589700 8.834000 43.799000 35.320000 # 2 
7380 1 2 0.589700 8.353000 42.570999 36.062000 # 2 
7381 1 1 -1.179400 0.000000 36.090000 45.114002 # 1 
7382 1 2 0.589700 0.029000 35.291000 45.639999 # 2 
7383 1 2 0.589700 0.799000 36.061001 44.587997 # 2 
7384 1 1 -1.179400 2.320000 36.090000 40.682999 # 1 
7385 1 2 0.589700 1.530000 36.091999 40.142998 # 2 
7386 1 2 0.589700 2.815000 35.327999 40.380997 # 2 
7387 1 1 -1.179400 9.710000 36.090000 40.682999 # 1 
7388 1 2 0.589700 9.211000 35.320000 40.410999 # 2 
7389 1 2 0.589700 9.692000 36.062000 41.639000 # 2 
7390 1 1 -1.179400 0.000000 45.798996 37.512001 # 1 
7391 1 2 0.589700 0.782000 45.320000 37.785000 # 2 
7392 1 2 0.589700 0.002000 46.588997 38.052002 # 2 
7393 1 1 -1.179400 0.000000 45.798996 46.697998 # 1 
7394 1 2 0.589700 0.786000 45.316002 46.441998 # 2 
7395 1 2 0.589700 0.014000 45.790001 47.654999 # 2 
7396 1 1 -1.179400 6.015000 45.114002 36.090000 # 1 
7397 1 2 0.589700 6.044001 45.639999 36.889000 # 2 
7398 1 2 0.589700 6.814000 44.587997 36.118999 # 2 
7399 1 1 -1.179400 6.015000 37.512001 38.410999 # 1 
7400 1 2 0.589700 5.233000 37.785000 38.889999 # 2 
7401 1 2 0.589700 6.013000 38.052002 37.620998 # 2 
7402 1 1 -1.179400 6.015000 46.697998 38.410999 # 1 
7403 1 2 0.589700 5.229000 46.441998 38.894001 # 2 
7404 1 2 0.589700 6.001000 47.654999 38.419003 # 2 
7405 1 1 -1.179400 6.015000 37.512001 45.798996 # 1 
7406 1 2 0.589700 6.801000 37.767998 45.316002 # 2 
7407 1 2 0.589700 6.029000 36.555000 45.790001 # 2 
7408 1 1 -1.179400 6.015000 46.697998 45.798996 # 1 
7409 1 2 0.589700 6.017000 46.157997 46.588997 # 2 
7410 1 2 0.589700 6.797000 46.424999 45.320000 # 2 
7411 1 1 -1.179400 3.695000 40.682999 36.090000 # 1 
7412 1 2 0.589700 3.196000 40.410999 36.860001 # 2 
7413 1 2 0.589700 3.677000 41.639000 36.118000 # 2 
7414 1 1 -1.179400 2.320000 36.090000 43.526997 # 1 
7415 1 2 0.589700 2.819000 36.860001 43.799000 # 2 
7416 1 2 0.589700 2.338000 36.118000 42.570999 # 2 
7417 1 1 -1.179400 2.263000 39.803001 38.299999 # 1 
7418 1 2 0.589700 2.781000 39.215000 38.848999 # 2 
7419 1 2 0.589700 1.497000 39.285999 38.050999 # 2 
7420 1 1 -1.179400 2.263000 39.803001 45.910000 # 1 
7421 1 2 0.589700 2.721000 40.084000 46.702999 # 2 
7422 1 2 0.589700 1.495000 39.330002 46.231998 # 2 
7423 1 1 -1.179400 2.263000 44.407001 38.299999 # 1 
7424 1 2 0.589700 1.995000 43.621002 38.776001 # 2 
7425 1 2 0.589700 2.753000 44.076000 37.546001 # 2 
7426 1 1 -1.179400 2.263000 44.407001 45.910000 # 1 
7427 1 2 0.589700 2.807000 44.934002 45.324997 # 2 
7428 1 2 0.589700 2.004000 43.653000 45.382000 # 2 
7429 1 1 -1.179400 3.752000 38.299999 39.803001 # 1 
7430 1 2 0.589700 4.019000 38.776001 40.588997 # 2 
7431 1 2 0.589700 3.262000 37.546001 40.134003 # 2 
7432 1 1 -1.179400 3.752000 45.910000 39.803001 # 1 
7433 1 2 0.589700 4.011000 45.382000 40.556999 # 2 
7434 1 2 0.589700 3.208000 45.324997 39.276001 # 2 
7435 1 1 -1.179400 3.752000 38.299999 44.407001 # 1 
7436 1 2 0.589700 4.518000 38.050999 44.924004 # 2 
7437 1 2 0.589700 3.234000 38.848999 44.994999 # 2 
7438 1 1 -1.179400 3.752000 45.910000 44.407001 # 1 
7439 1 2 0.589700 4.520000 46.231998 44.879997 # 2 
7440 1 2 0.589700 3.294000 46.702999 44.125999 # 2 
7441 1 1 -1.179400 8.335000 40.682999 36.090000 # 1 
7442 1 2 0.589700 8.830000 40.380997 36.852001 # 2 
7443 1 2 0.589700 7.545000 40.142998 36.087997 # 2 
7444 1 1 -1.179400 9.710000 36.090000 43.526997 # 1 
7445 1 2 0.589700 9.215000 36.852001 43.828999 # 2 
7446 1 2 0.589700 10.500000 36.087997 44.067001 # 2 
7447 1 1 -1.179400 9.767000 39.803001 38.299999 # 1 
7448 1 2 0.589700 10.025999 40.556999 38.828003 # 2 
7449 1 2 0.589700 9.223000 39.276001 38.884998 # 2 
7450 1 1 -1.179400 9.767000 39.803001 45.910000 # 1 
7451 1 2 0.589700 9.277000 40.134003 46.664001 # 2 
7452 1 2 0.589700 10.035000 40.588997 45.433998 # 2 
7453 1 1 -1.179400 9.767000 44.407001 38.299999 # 1 
7454 1 2 0.589700 10.535000 44.879997 37.978001 # 2 
7455 1 2 0.589700 9.309000 44.125999 37.507000 # 2 
7456 1 1 -1.179400 9.767000 44.407001 45.910000 # 1 
7457 1 2 0.589700 10.533000 44.924004 46.159000 # 2 
7458 1 2 0.589700 9.248000 44.994999 45.361000 # 2 
7459 1 1 -1.179400 8.278000 38.299999 39.803001 # 1 
7460 1 2 0.589700 8.736000 37.507000 40.084000 # 2 
7461 1 2 0.589700 7.510000 37.978001 39.330002 # 2 
7462 1 1 -1.179400 8.278000 45.910000 39.803001 # 1 
7463 1 2 0.589700 7.512000 46.159000 39.285999 # 2 
7464 1 2 0.589700 8.797000 45.361000 39.215000 # 2 
7465 1 1 -1.179400 8.278000 38.299999 44.407001 # 1 
7466 1 2 0.589700 8.019000 38.828003 43.653000 # 2 
7467 1 2 0.589700 8.822000 38.884998 44.934002 # 2 
7468 1 1 -1.179400 8.278000 45.910000 44.407001 # 1 
7469 1 2 0.589700 8.768000 46.664001 44.076000 # 2 
7470 1 2 0.589700 8.011000 45.433998 43.621002 # 2 
7471 1 1 -1.179400 3.006000 42.104996 42.104996 # 1 
7472 1 2 0.589700 3.532000 42.903999 42.076000 # 2 
7473 1 2 0.589700 2.480000 42.133999 41.306000 # 2 
7474 1 1 -1.179400 9.024000 42.104996 42.104996 # 1 
7475 1 2 0.589700 9.550000 42.076000 42.903999 # 2 
7476 1 2 0.589700 8.498000 41.306000 42.133999 # 2 
7477 1 1 -1.179400 1.422000 42.104996 44.426003 # 1 
7478 1 2 0.589700 1.964000 42.099998 43.637001 # 2 
7479 1 2 0.589700 1.707000 41.334999 44.917999 # 2 
7480 1 1 -1.179400 10.608000 42.104996 44.426003 # 1 
7481 1 2 0.589700 10.347000 42.878998 44.924999 # 2 
7482 1 2 0.589700 11.565000 42.122997 44.436996 # 2 
7483 1 1 -1.179400 1.422000 42.104996 39.784000 # 1 
7484 1 2 0.589700 0.465000 42.087002 39.772999 # 2 
7485 1 2 0.589700 1.683000 41.331001 39.285000 # 2 
7486 1 1 -1.179400 10.608000 42.104996 39.784000 # 1 
7487 1 2 0.589700 10.066000 42.110001 40.573002 # 2 
7488 1 2 0.589700 10.323000 42.875000 39.292000 # 2 
7489 1 1 -1.179400 4.593000 39.785000 42.104996 # 1 
7490 1 2 0.589700 4.050000 40.573002 42.110001 # 2 
7491 1 2 0.589700 4.308000 39.292999 42.875000 # 2 
7492 1 1 -1.179400 7.437000 39.785000 42.104996 # 1 
7493 1 2 0.589700 6.480000 39.772999 42.087002 # 2 
7494 1 2 0.589700 7.698000 39.285000 41.331001 # 2 
7495 1 1 -1.179400 4.593000 44.425003 42.104996 # 1 
7496 1 2 0.589700 4.332000 44.924999 42.878998 # 2 
7497 1 2 0.589700 5.550000 44.436996 42.122997 # 2 
7498 1 1 -1.179400 7.437000 44.425003 42.104996 # 1 
7499 1 2 0.589700 7.980000 43.637001 42.099998 # 2 
7500 1 2 0.589700 7.722000 44.917000 41.334999 # 2 
7501 1 1 -1.179400 24.059999 36.090000 27.066000 # 1 
7502 1 2 0.589700 23.261002 36.118999 27.592001 # 2 
7503 1 2 0.589700 24.031000 36.889000 26.540001 # 2 
7504 1 1 -1.179400 24.059999 38.410999 25.481998 # 1 
7505 1 2 0.589700 23.274000 38.894001 25.738001 # 2 
7506 1 2 0.589700 24.046000 38.419003 24.525002 # 2 
7507 1 1 -1.179400 24.059999 38.410999 34.667999 # 1 
7508 1 2 0.589700 23.278000 38.889999 34.395000 # 2 
7509 1 2 0.589700 24.058001 37.620998 34.128002 # 2 
7510 1 1 -1.179400 12.030000 48.119999 33.084000 # 1 
7511 1 2 0.589700 12.059000 47.320999 33.610001 # 2 
7512 1 2 0.589700 12.829000 48.091003 32.557999 # 2 
7513 1 1 -1.179400 14.349999 48.119999 28.653000 # 1 
7514 1 2 0.589700 13.559999 48.122002 28.113001 # 2 
7515 1 2 0.589700 14.845000 47.357998 28.351000 # 2 
7516 1 1 -1.179400 21.740000 48.119999 28.653000 # 1 
7517 1 2 0.589700 21.240999 47.350002 28.381001 # 2 
7518 1 2 0.589700 21.722000 48.091999 29.609001 # 2 
7519 1 1 -1.179400 18.045000 39.096001 36.090000 # 1 
7520 1 2 0.589700 18.015999 38.570000 35.291000 # 2 
7521 1 2 0.589700 17.246000 39.621998 36.061001 # 2 
7522 1 1 -1.179400 15.725000 43.526997 36.090000 # 1 
7523 1 2 0.589700 16.514999 44.067001 36.091999 # 2 
7524 1 2 0.589700 15.230000 43.828999 35.327999 # 2 
7525 1 1 -1.179400 20.365000 43.526997 36.090000 # 1 
7526 1 2 0.589700 20.864000 43.799000 35.320000 # 2 
7527 1 2 0.589700 20.382999 42.570999 36.062000 # 2 
7528 1 1 -1.179400 12.030000 36.090000 45.114002 # 1 
7529 1 2 0.589700 12.059000 35.291000 45.639999 # 2 
7530 1 2 0.589700 12.829000 36.061001 44.587997 # 2 
7531 1 1 -1.179400 14.349999 36.090000 40.682999 # 1 
7532 1 2 0.589700 13.559999 36.091999 40.142998 # 2 
7533 1 2 0.589700 14.845000 35.327999 40.380997 # 2 
7534 1 1 -1.179400 21.740000 36.090000 40.682999 # 1 
7535 1 2 0.589700 21.240999 35.320000 40.410999 # 2 
7536 1 2 0.589700 21.722000 36.062000 41.639000 # 2 
7537 1 1 -1.179400 12.030000 36.090000 39.096001 # 1 
7538 1 2 0.589700 11.231001 36.118999 39.621998 # 2 
7539 1 2 0.589700 12.000999 36.889000 38.570000 # 2 
7540 1 1 -1.179400 12.030000 38.410999 37.512001 # 1 
7541 1 2 0.589700 11.244000 38.894001 37.767998 # 2 
7542 1 2 0.589700 12.016000 38.419003 36.555000 # 2 
7543 1 1 -1.179400 12.030000 38.410999 46.697998 # 1 
7544 1 2 0.589700 11.247999 38.889999 46.424999 # 2 
7545 1 2 0.589700 12.028000 37.620998 46.157997 # 2 
7546 1 1 -1.179400 12.030000 45.798996 37.512001 # 1 
7547 1 2 0.589700 12.812000 45.320000 37.785000 # 2 
7548 1 2 0.589700 12.032000 46.588997 38.052002 # 2 
7549 1 1 -1.179400 12.030000 45.798996 46.697998 # 1 
7550 1 2 0.589700 12.816000 45.316002 46.441998 # 2 
7551 1 2 0.589700 12.044000 45.790001 47.654999 # 2 
7552 1 1 -1.179400 18.045000 45.114002 36.090000 # 1 
7553 1 2 0.589700 18.073999 45.639999 36.889000 # 2 
7554 1 2 0.589700 18.844000 44.587997 36.118999 # 2 
7555 1 1 -1.179400 18.045000 37.512001 38.410999 # 1 
7556 1 2 0.589700 17.263000 37.785000 38.889999 # 2 
7557 1 2 0.589700 18.042999 38.052002 37.620998 # 2 
7558 1 1 -1.179400 18.045000 46.697998 38.410999 # 1 
7559 1 2 0.589700 17.259001 46.441998 38.894001 # 2 
7560 1 2 0.589700 18.031000 47.654999 38.419003 # 2 
7561 1 1 -1.179400 18.045000 37.512001 45.798996 # 1 
7562 1 2 0.589700 18.831001 37.767998 45.316002 # 2 
7563 1 2 0.589700 18.059000 36.555000 45.790001 # 2 
7564 1 1 -1.179400 18.045000 46.697998 45.798996 # 1 
7565 1 2 0.589700 18.047001 46.157997 46.588997 # 2 
7566 1 2 0.589700 18.827000 46.424999 45.320000 # 2 
7567 1 1 -1.179400 15.725000 40.682999 36.090000 # 1 
7568 1 2 0.589700 15.226001 40.410999 36.860001 # 2 
7569 1 2 0.589700 15.707001 41.639000 36.118000 # 2 
7570 1 1 -1.179400 14.349999 36.090000 43.526997 # 1 
7571 1 2 0.589700 14.849000 36.860001 43.799000 # 2 
7572 1 2 0.589700 14.368000 36.118000 42.570999 # 2 
7573 1 1 -1.179400 14.292999 39.803001 38.299999 # 1 
7574 1 2 0.589700 14.811000 39.215000 38.848999 # 2 
7575 1 2 0.589700 13.527000 39.285999 38.050999 # 2 
7576 1 1 -1.179400 14.292999 39.803001 45.910000 # 1 
7577 1 2 0.589700 14.751000 40.084000 46.702999 # 2 
7578 1 2 0.589700 13.525000 39.330002 46.231998 # 2 
7579 1 1 -1.179400 14.292999 44.407001 38.299999 # 1 
7580 1 2 0.589700 14.025001 43.621002 38.776001 # 2 
7581 1 2 0.589700 14.783000 44.076000 37.546001 # 2 
7582 1 1 -1.179400 14.292999 44.407001 45.910000 # 1 
7583 1 2 0.589700 14.837000 44.934002 45.324997 # 2 
7584 1 2 0.589700 14.033999 43.653000 45.382000 # 2 
7585 1 1 -1.179400 15.782000 38.299999 39.803001 # 1 
7586 1 2 0.589700 16.049000 38.776001 40.588997 # 2 
7587 1 2 0.589700 15.292000 37.546001 40.134003 # 2 
7588 1 1 -1.179400 15.782000 45.910000 39.803001 # 1 
7589 1 2 0.589700 16.041000 45.382000 40.556999 # 2 
7590 1 2 0.589700 15.238000 45.324997 39.276001 # 2 
7591 1 1 -1.179400 15.782000 38.299999 44.407001 # 1 
7592 1 2 0.589700 16.548000 38.050999 44.924004 # 2 
7593 1 2 0.589700 15.264000 38.848999 44.994999 # 2 
7594 1 1 -1.179400 15.782000 45.910000 44.407001 # 1 
7595 1 2 0.589700 16.549999 46.231998 44.879997 # 2 
7596 1 2 0.589700 15.324000 46.702999 44.125999 # 2 
7597 1 1 -1.179400 20.365000 40.682999 36.090000 # 1 
7598 1 2 0.589700 20.860001 40.380997 36.852001 # 2 
7599 1 2 0.589700 19.575001 40.142998 36.087997 # 2 
7600 1 1 -1.179400 21.740000 36.090000 43.526997 # 1 
7601 1 2 0.589700 21.245001 36.852001 43.828999 # 2 
7602 1 2 0.589700 22.530001 36.087997 44.067001 # 2 
7603 1 1 -1.179400 21.797001 39.803001 38.299999 # 1 
7604 1 2 0.589700 22.056000 40.556999 38.828003 # 2 
7605 1 2 0.589700 21.252998 39.276001 38.884998 # 2 
7606 1 1 -1.179400 21.797001 39.803001 45.910000 # 1 
7607 1 2 0.589700 21.307001 40.134003 46.664001 # 2 
7608 1 2 0.589700 22.065001 40.588997 45.433998 # 2 
7609 1 1 -1.179400 21.797001 44.407001 38.299999 # 1 
7610 1 2 0.589700 22.565001 44.879997 37.978001 # 2 
7611 1 2 0.589700 21.338999 44.125999 37.507000 # 2 
7612 1 1 -1.179400 21.797001 44.407001 45.910000 # 1 
7613 1 2 0.589700 22.563000 44.924004 46.159000 # 2 
7614 1 2 0.589700 21.278000 44.994999 45.361000 # 2 
7615 1 1 -1.179400 20.308001 38.299999 39.803001 # 1 
7616 1 2 0.589700 20.766001 37.507000 40.084000 # 2 
7617 1 2 0.589700 19.540001 37.978001 39.330002 # 2 
7618 1 1 -1.179400 20.308001 45.910000 39.803001 # 1 
7619 1 2 0.589700 19.542000 46.159000 39.285999 # 2 
7620 1 2 0.589700 20.827000 45.361000 39.215000 # 2 
7621 1 1 -1.179400 20.308001 38.299999 44.407001 # 1 
7622 1 2 0.589700 20.049000 38.828003 43.653000 # 2 
7623 1 2 0.589700 20.852001 38.884998 44.934002 # 2 
7624 1 1 -1.179400 20.308001 45.910000 44.407001 # 1 
7625 1 2 0.589700 20.797998 46.664001 44.076000 # 2 
7626 1 2 0.589700 20.041000 45.433998 43.621002 # 2 
7627 1 1 -1.179400 15.036000 42.104996 42.104996 # 1 
7628 1 2 0.589700 15.562000 42.903999 42.076000 # 2 
7629 1 2 0.589700 14.510000 42.133999 41.306000 # 2 
7630 1 1 -1.179400 21.054001 42.104996 42.104996 # 1 
7631 1 2 0.589700 21.580000 42.076000 42.903999 # 2 
7632 1 2 0.589700 20.528000 41.306000 42.133999 # 2 
7633 1 1 -1.179400 13.452001 42.104996 44.426003 # 1 
7634 1 2 0.589700 13.993999 42.099998 43.637001 # 2 
7635 1 2 0.589700 13.737000 41.334999 44.917999 # 2 
7636 1 1 -1.179400 22.637999 42.104996 44.426003 # 1 
7637 1 2 0.589700 22.376999 42.878998 44.924999 # 2 
7638 1 2 0.589700 23.594999 42.122997 44.436996 # 2 
7639 1 1 -1.179400 13.452001 42.104996 39.784000 # 1 
7640 1 2 0.589700 12.495001 42.087002 39.772999 # 2 
7641 1 2 0.589700 13.712999 41.331001 39.285000 # 2 
7642 1 1 -1.179400 22.637999 42.104996 39.784000 # 1 
7643 1 2 0.589700 22.096001 42.110001 40.573002 # 2 
7644 1 2 0.589700 22.353001 42.875000 39.292000 # 2 
7645 1 1 -1.179400 16.622999 39.785000 42.104996 # 1 
7646 1 2 0.589700 16.080000 40.573002 42.110001 # 2 
7647 1 2 0.589700 16.338001 39.292999 42.875000 # 2 
7648 1 1 -1.179400 19.466999 39.785000 42.104996 # 1 
7649 1 2 0.589700 18.510000 39.772999 42.087002 # 2 
7650 1 2 0.589700 19.728001 39.285000 41.331001 # 2 
7651 1 1 -1.179400 16.622999 44.425003 42.104996 # 1 
7652 1 2 0.589700 16.362000 44.924999 42.878998 # 2 
7653 1 2 0.589700 17.580000 44.436996 42.122997 # 2 
7654 1 1 -1.179400 19.466999 44.425003 42.104996 # 1 
7655 1 2 0.589700 20.009998 43.637001 42.099998 # 2 
7656 1 2 0.589700 19.752001 44.917000 41.334999 # 2 
7657 1 1 -1.179400 6.015000 27.066000 48.119999 # 1 
7658 1 2 0.589700 5.986000 26.540001 47.320999 # 2 
7659 1 2 0.589700 5.216000 27.592001 48.091003 # 2 
7660 1 1 -1.179400 3.695000 31.497000 48.119999 # 1 
7661 1 2 0.589700 4.485000 32.037003 48.122002 # 2 
7662 1 2 0.589700 3.200000 31.799000 47.357998 # 2 
7663 1 1 -1.179400 8.335000 31.497000 48.119999 # 1 
7664 1 2 0.589700 8.834000 31.768999 47.350002 # 2 
7665 1 2 0.589700 8.353000 30.541000 48.091999 # 2 
7666 1 1 -1.179400 24.059999 24.059999 39.096001 # 1 
7667 1 2 0.589700 23.261002 24.089001 39.621998 # 2 
7668 1 2 0.589700 24.031000 24.858999 38.570000 # 2 
7669 1 1 -1.179400 24.059999 26.380999 37.512001 # 1 
7670 1 2 0.589700 23.274000 26.863998 37.767998 # 2 
7671 1 2 0.589700 24.046000 26.389000 36.555000 # 2 
7672 1 1 -1.179400 24.059999 26.380999 46.697998 # 1 
7673 1 2 0.589700 23.278000 26.860001 46.424999 # 2 
7674 1 2 0.589700 24.058001 25.591000 46.157997 # 2 
7675 1 1 -1.179400 18.045000 27.066000 48.119999 # 1 
7676 1 2 0.589700 18.015999 26.540001 47.320999 # 2 
7677 1 2 0.589700 17.246000 27.592001 48.091003 # 2 
7678 1 1 -1.179400 15.725000 31.497000 48.119999 # 1 
7679 1 2 0.589700 16.514999 32.037003 48.122002 # 2 
7680 1 2 0.589700 15.230000 31.799000 47.357998 # 2 
7681 1 1 -1.179400 20.365000 31.497000 48.119999 # 1 
7682 1 2 0.589700 20.864000 31.768999 47.350002 # 2 
7683 1 2 0.589700 20.382999 30.541000 48.091999 # 2 
7684 1 1 -1.179400 0.000000 48.119999 45.114002 # 1 
7685 1 2 0.589700 0.029000 47.320999 45.639999 # 2 
7686 1 2 0.589700 0.799000 48.091003 44.587997 # 2 
7687 1 1 -1.179400 2.320000 48.119999 40.682999 # 1 
7688 1 2 0.589700 1.530000 48.122002 40.142998 # 2 
7689 1 2 0.589700 2.815000 47.357998 40.380997 # 2 
7690 1 1 -1.179400 9.710000 48.119999 40.682999 # 1 
7691 1 2 0.589700 9.211000 47.350002 40.410999 # 2 
7692 1 2 0.589700 9.692000 48.091999 41.639000 # 2 
7693 1 1 -1.179400 6.015000 39.096001 48.119999 # 1 
7694 1 2 0.589700 5.986000 38.570000 47.320999 # 2 
7695 1 2 0.589700 5.216000 39.621998 48.091003 # 2 
7696 1 1 -1.179400 3.695000 43.526997 48.119999 # 1 
7697 1 2 0.589700 4.485000 44.067001 48.122002 # 2 
7698 1 2 0.589700 3.200000 43.828999 47.357998 # 2 
7699 1 1 -1.179400 8.335000 43.526997 48.119999 # 1 
7700 1 2 0.589700 8.834000 43.799000 47.350002 # 2 
7701 1 2 0.589700 8.353000 42.570999 48.091999 # 2 
7702 1 1 -1.179400 24.059999 36.090000 39.096001 # 1 
7703 1 2 0.589700 23.261002 36.118999 39.621998 # 2 
7704 1 2 0.589700 24.031000 36.889000 38.570000 # 2 
7705 1 1 -1.179400 24.059999 38.410999 37.512001 # 1 
7706 1 2 0.589700 23.274000 38.894001 37.767998 # 2 
7707 1 2 0.589700 24.046000 38.419003 36.555000 # 2 
7708 1 1 -1.179400 24.059999 38.410999 46.697998 # 1 
7709 1 2 0.589700 23.278000 38.889999 46.424999 # 2 
7710 1 2 0.589700 24.058001 37.620998 46.157997 # 2 
7711 1 1 -1.179400 12.030000 48.119999 45.114002 # 1 
7712 1 2 0.589700 12.059000 47.320999 45.639999 # 2 
7713 1 2 0.589700 12.829000 48.091003 44.587997 # 2 
7714 1 1 -1.179400 14.349999 48.119999 40.682999 # 1 
7715 1 2 0.589700 13.559999 48.122002 40.142998 # 2 
7716 1 2 0.589700 14.845000 47.357998 40.380997 # 2 
7717 1 1 -1.179400 21.740000 48.119999 40.682999 # 1 
7718 1 2 0.589700 21.240999 47.350002 40.410999 # 2 
7719 1 2 0.589700 21.722000 48.091999 41.639000 # 2 
7720 1 1 -1.179400 18.045000 39.096001 48.119999 # 1 
7721 1 2 0.589700 18.015999 38.570000 47.320999 # 2 
7722 1 2 0.589700 17.246000 39.621998 48.091003 # 2 
7723 1 1 -1.179400 15.725000 43.526997 48.119999 # 1 
7724 1 2 0.589700 16.514999 44.067001 48.122002 # 2 
7725 1 2 0.589700 15.230000 43.828999 47.357998 # 2 
7726 1 1 -1.179400 20.365000 43.526997 48.119999 # 1 
7727 1 2 0.589700 20.864000 43.799000 47.350002 # 2 
7728 1 2 0.589700 20.382999 42.570999 48.091999 # 2 
7729 1 1 -1.179400 36.090000 24.059999 27.066000 # 1 
7730 1 2 0.589700 35.291000 24.089001 27.592001 # 2 
7731 1 2 0.589700 36.061001 24.858999 26.540001 # 2 
7732 1 1 -1.179400 36.090000 26.380999 25.481998 # 1 
7733 1 2 0.589700 35.304001 26.863998 25.738001 # 2 
7734 1 2 0.589700 36.076000 26.389000 24.525002 # 2 
7735 1 1 -1.179400 36.090000 26.380999 34.667999 # 1 
7736 1 2 0.589700 35.308002 26.860001 34.395000 # 2 
7737 1 2 0.589700 36.087997 25.591000 34.128002 # 2 
7738 1 1 -1.179400 36.090000 33.769001 25.481998 # 1 
7739 1 2 0.589700 36.872002 33.290001 25.755001 # 2 
7740 1 2 0.589700 36.091999 34.558998 26.021999 # 2 
7741 1 1 -1.179400 36.090000 33.769001 34.667999 # 1 
7742 1 2 0.589700 36.875999 33.285999 34.411999 # 2 
7743 1 2 0.589700 36.104000 33.759998 35.625000 # 2 
7744 1 1 -1.179400 42.104996 33.084000 24.059999 # 1 
7745 1 2 0.589700 42.133999 33.610001 24.858999 # 2 
7746 1 2 0.589700 42.903999 32.557999 24.089001 # 2 
7747 1 1 -1.179400 42.104996 25.481998 26.380999 # 1 
7748 1 2 0.589700 41.322998 25.755001 26.860001 # 2 
7749 1 2 0.589700 42.103001 26.021999 25.591000 # 2 
7750 1 1 -1.179400 42.104996 34.667999 26.380999 # 1 
7751 1 2 0.589700 41.319000 34.411999 26.863998 # 2 
7752 1 2 0.589700 42.090996 35.625000 26.389000 # 2 
7753 1 1 -1.179400 42.104996 25.481998 33.769001 # 1 
7754 1 2 0.589700 42.891003 25.738001 33.285999 # 2 
7755 1 2 0.589700 42.118996 24.525002 33.759998 # 2 
7756 1 1 -1.179400 42.104996 34.667999 33.769001 # 1 
7757 1 2 0.589700 42.107002 34.128002 34.558998 # 2 
7758 1 2 0.589700 42.887001 34.395000 33.290001 # 2 
7759 1 1 -1.179400 39.785000 28.653000 24.059999 # 1 
7760 1 2 0.589700 39.285999 28.381001 24.830000 # 2 
7761 1 2 0.589700 39.767002 29.609001 24.087999 # 2 
7762 1 1 -1.179400 38.410000 24.059999 31.497000 # 1 
7763 1 2 0.589700 38.909000 24.830000 31.768999 # 2 
7764 1 2 0.589700 38.427998 24.087999 30.541000 # 2 
7765 1 1 -1.179400 38.353001 27.773001 26.270000 # 1 
7766 1 2 0.589700 38.870998 27.184999 26.819000 # 2 
7767 1 2 0.589700 37.586998 27.256001 26.021000 # 2 
7768 1 1 -1.179400 38.353001 27.773001 33.880001 # 1 
7769 1 2 0.589700 38.811001 28.053999 34.673000 # 2 
7770 1 2 0.589700 37.584999 27.299999 34.202000 # 2 
7771 1 1 -1.179400 38.353001 32.376999 26.270000 # 1 
7772 1 2 0.589700 38.084999 31.591000 26.746002 # 2 
7773 1 2 0.589700 38.842999 32.046001 25.515999 # 2 
7774 1 1 -1.179400 38.353001 32.376999 33.880001 # 1 
7775 1 2 0.589700 38.896999 32.903999 33.294998 # 2 
7776 1 2 0.589700 38.094002 31.623001 33.352001 # 2 
7777 1 1 -1.179400 39.841999 26.270000 27.773001 # 1 
7778 1 2 0.589700 40.109001 26.746002 28.559000 # 2 
7779 1 2 0.589700 39.352001 25.515999 28.104000 # 2 
7780 1 1 -1.179400 39.841999 33.880001 27.773001 # 1 
7781 1 2 0.589700 40.100998 33.352001 28.527000 # 2 
7782 1 2 0.589700 39.298000 33.294998 27.246000 # 2 
7783 1 1 -1.179400 39.841999 26.270000 32.376999 # 1 
7784 1 2 0.589700 40.608002 26.021000 32.893997 # 2 
7785 1 2 0.589700 39.324001 26.819000 32.965000 # 2 
7786 1 1 -1.179400 39.841999 33.880001 32.376999 # 1 
7787 1 2 0.589700 40.610001 34.202000 32.850002 # 2 
7788 1 2 0.589700 39.383999 34.673000 32.096001 # 2 
7789 1 1 -1.179400 44.425003 28.653000 24.059999 # 1 
7790 1 2 0.589700 44.920002 28.351000 24.821999 # 2 
7791 1 2 0.589700 43.635002 28.113001 24.058001 # 2 
7792 1 1 -1.179400 45.799999 24.059999 31.497000 # 1 
7793 1 2 0.589700 45.305000 24.821999 31.799000 # 2 
7794 1 2 0.589700 46.590000 24.058001 32.037003 # 2 
7795 1 1 -1.179400 45.857002 27.773001 26.270000 # 1 
7796 1 2 0.589700 46.115997 28.527000 26.798000 # 2 
7797 1 2 0.589700 45.313000 27.246000 26.855000 # 2 
7798 1 1 -1.179400 45.857002 27.773001 33.880001 # 1 
7799 1 2 0.589700 45.367004 28.104000 34.634003 # 2 
7800 1 2 0.589700 46.125000 28.559000 33.403999 # 2 
7801 1 1 -1.179400 45.857002 32.376999 26.270000 # 1 
7802 1 2 0.589700 46.625000 32.850002 25.948000 # 2 
7803 1 2 0.589700 45.398998 32.096001 25.476999 # 2 
7804 1 1 -1.179400 45.857002 32.376999 33.880001 # 1 
7805 1 2 0.589700 46.623001 32.893997 34.128998 # 2 
7806 1 2 0.589700 45.338001 32.965000 33.331001 # 2 
7807 1 1 -1.179400 44.368000 26.270000 27.773001 # 1 
7808 1 2 0.589700 44.826004 25.476999 28.053999 # 2 
7809 1 2 0.589700 43.600002 25.948000 27.299999 # 2 
7810 1 1 -1.179400 44.368000 33.880001 27.773001 # 1 
7811 1 2 0.589700 43.601997 34.128998 27.256001 # 2 
7812 1 2 0.589700 44.887001 33.331001 27.184999 # 2 
7813 1 1 -1.179400 44.368000 26.270000 32.376999 # 1 
7814 1 2 0.589700 44.109001 26.798000 31.623001 # 2 
7815 1 2 0.589700 44.911999 26.855000 32.903999 # 2 
7816 1 1 -1.179400 44.368000 33.880001 32.376999 # 1 
7817 1 2 0.589700 44.857998 34.634003 32.046001 # 2 
7818 1 2 0.589700 44.100998 33.403999 31.591000 # 2 
7819 1 1 -1.179400 39.096001 30.074999 30.074999 # 1 
7820 1 2 0.589700 39.621998 30.874001 30.046001 # 2 
7821 1 2 0.589700 38.570000 30.104000 29.275999 # 2 
7822 1 1 -1.179400 45.114002 30.074999 30.074999 # 1 
7823 1 2 0.589700 45.639999 30.046001 30.874001 # 2 
7824 1 2 0.589700 44.587997 29.275999 30.104000 # 2 
7825 1 1 -1.179400 37.512001 30.074999 32.396000 # 1 
7826 1 2 0.589700 38.054001 30.070000 31.607000 # 2 
7827 1 2 0.589700 37.797001 29.305000 32.888000 # 2 
7828 1 1 -1.179400 46.697998 30.074999 32.396000 # 1 
7829 1 2 0.589700 46.437000 30.848999 32.895000 # 2 
7830 1 2 0.589700 47.654999 30.093000 32.407001 # 2 
7831 1 1 -1.179400 37.512001 30.074999 27.754000 # 1 
7832 1 2 0.589700 36.555000 30.057001 27.743000 # 2 
7833 1 2 0.589700 37.772999 29.300999 27.255001 # 2 
7834 1 1 -1.179400 46.697998 30.074999 27.754000 # 1 
7835 1 2 0.589700 46.156002 30.079998 28.542999 # 2 
7836 1 2 0.589700 46.413002 30.845001 27.262001 # 2 
7837 1 1 -1.179400 40.682999 27.755001 30.074999 # 1 
7838 1 2 0.589700 40.139999 28.542999 30.079998 # 2 
7839 1 2 0.589700 40.398003 27.263000 30.845001 # 2 
7840 1 1 -1.179400 43.526997 27.755001 30.074999 # 1 
7841 1 2 0.589700 42.570000 27.743000 30.057001 # 2 
7842 1 2 0.589700 43.787998 27.255001 29.300999 # 2 
7843 1 1 -1.179400 40.682999 32.395000 30.074999 # 1 
7844 1 2 0.589700 40.422001 32.895000 30.848999 # 2 
7845 1 2 0.589700 41.639999 32.407001 30.093000 # 2 
7846 1 1 -1.179400 43.526997 32.395000 30.074999 # 1 
7847 1 2 0.589700 44.070000 31.607000 30.070000 # 2 
7848 1 2 0.589700 43.811996 32.886997 29.305000 # 2 
7849 1 1 -1.179400 24.059999 36.090000 33.084000 # 1 
7850 1 2 0.589700 24.089001 35.291000 33.610001 # 2 
7851 1 2 0.589700 24.858999 36.061001 32.557999 # 2 
7852 1 1 -1.179400 26.380001 36.090000 28.653000 # 1 
7853 1 2 0.589700 25.590000 36.091999 28.113001 # 2 
7854 1 2 0.589700 26.875000 35.327999 28.351000 # 2 
7855 1 1 -1.179400 33.770000 36.090000 28.653000 # 1 
7856 1 2 0.589700 33.271000 35.320000 28.381001 # 2 
7857 1 2 0.589700 33.751999 36.062000 29.609001 # 2 
7858 1 1 -1.179400 24.059999 45.798996 25.481998 # 1 
7859 1 2 0.589700 24.841999 45.320000 25.755001 # 2 
7860 1 2 0.589700 24.062000 46.588997 26.021999 # 2 
7861 1 1 -1.179400 24.059999 45.798996 34.667999 # 1 
7862 1 2 0.589700 24.846001 45.316002 34.411999 # 2 
7863 1 2 0.589700 24.073999 45.790001 35.625000 # 2 
7864 1 1 -1.179400 30.074999 45.114002 24.059999 # 1 
7865 1 2 0.589700 30.104000 45.639999 24.858999 # 2 
7866 1 2 0.589700 30.874001 44.587997 24.089001 # 2 
7867 1 1 -1.179400 30.074999 37.512001 26.380999 # 1 
7868 1 2 0.589700 29.293001 37.785000 26.860001 # 2 
7869 1 2 0.589700 30.072998 38.052002 25.591000 # 2 
7870 1 1 -1.179400 30.074999 46.697998 26.380999 # 1 
7871 1 2 0.589700 29.289000 46.441998 26.863998 # 2 
7872 1 2 0.589700 30.060999 47.654999 26.389000 # 2 
7873 1 1 -1.179400 30.074999 37.512001 33.769001 # 1 
7874 1 2 0.589700 30.861000 37.767998 33.285999 # 2 
7875 1 2 0.589700 30.088999 36.555000 33.759998 # 2 
7876 1 1 -1.179400 30.074999 46.697998 33.769001 # 1 
7877 1 2 0.589700 30.077000 46.157997 34.558998 # 2 
7878 1 2 0.589700 30.857000 46.424999 33.290001 # 2 
7879 1 1 -1.179400 27.755001 40.682999 24.059999 # 1 
7880 1 2 0.589700 27.256001 40.410999 24.830000 # 2 
7881 1 2 0.589700 27.737000 41.639000 24.087999 # 2 
7882 1 1 -1.179400 26.380001 36.090000 31.497000 # 1 
7883 1 2 0.589700 26.879002 36.860001 31.768999 # 2 
7884 1 2 0.589700 26.398001 36.118000 30.541000 # 2 
7885 1 1 -1.179400 26.322998 39.803001 26.270000 # 1 
7886 1 2 0.589700 26.841000 39.215000 26.819000 # 2 
7887 1 2 0.589700 25.557001 39.285999 26.021000 # 2 
7888 1 1 -1.179400 26.322998 39.803001 33.880001 # 1 
7889 1 2 0.589700 26.781002 40.084000 34.673000 # 2 
7890 1 2 0.589700 25.555000 39.330002 34.202000 # 2 
7891 1 1 -1.179400 26.322998 44.407001 26.270000 # 1 
7892 1 2 0.589700 26.055000 43.621002 26.746002 # 2 
7893 1 2 0.589700 26.813000 44.076000 25.515999 # 2 
7894 1 1 -1.179400 26.322998 44.407001 33.880001 # 1 
7895 1 2 0.589700 26.867001 44.934002 33.294998 # 2 
7896 1 2 0.589700 26.063999 43.653000 33.352001 # 2 
7897 1 1 -1.179400 27.812000 38.299999 27.773001 # 1 
7898 1 2 0.589700 28.078999 38.776001 28.559000 # 2 
7899 1 2 0.589700 27.321999 37.546001 28.104000 # 2 
7900 1 1 -1.179400 27.812000 45.910000 27.773001 # 1 
7901 1 2 0.589700 28.071001 45.382000 28.527000 # 2 
7902 1 2 0.589700 27.268000 45.324997 27.246000 # 2 
7903 1 1 -1.179400 27.812000 38.299999 32.376999 # 1 
7904 1 2 0.589700 28.577999 38.050999 32.893997 # 2 
7905 1 2 0.589700 27.293999 38.848999 32.965000 # 2 
7906 1 1 -1.179400 27.812000 45.910000 32.376999 # 1 
7907 1 2 0.589700 28.580000 46.231998 32.850002 # 2 
7908 1 2 0.589700 27.354000 46.702999 32.096001 # 2 
7909 1 1 -1.179400 32.395000 40.682999 24.059999 # 1 
7910 1 2 0.589700 32.889999 40.380997 24.821999 # 2 
7911 1 2 0.589700 31.605000 40.142998 24.058001 # 2 
7912 1 1 -1.179400 33.770000 36.090000 31.497000 # 1 
7913 1 2 0.589700 33.275002 36.852001 31.799000 # 2 
7914 1 2 0.589700 34.560001 36.087997 32.037003 # 2 
7915 1 1 -1.179400 33.827000 39.803001 26.270000 # 1 
7916 1 2 0.589700 34.086002 40.556999 26.798000 # 2 
7917 1 2 0.589700 33.283001 39.276001 26.855000 # 2 
7918 1 1 -1.179400 33.827000 39.803001 33.880001 # 1 
7919 1 2 0.589700 33.336998 40.134003 34.634003 # 2 
7920 1 2 0.589700 34.094997 40.588997 33.403999 # 2 
7921 1 1 -1.179400 33.827000 44.407001 26.270000 # 1 
7922 1 2 0.589700 34.595001 44.879997 25.948000 # 2 
7923 1 2 0.589700 33.368999 44.125999 25.476999 # 2 
7924 1 1 -1.179400 33.827000 44.407001 33.880001 # 1 
7925 1 2 0.589700 34.593002 44.924004 34.128998 # 2 
7926 1 2 0.589700 33.307999 44.994999 33.331001 # 2 
7927 1 1 -1.179400 32.337997 38.299999 27.773001 # 1 
7928 1 2 0.589700 32.795998 37.507000 28.053999 # 2 
7929 1 2 0.589700 31.570000 37.978001 27.299999 # 2 
7930 1 1 -1.179400 32.337997 45.910000 27.773001 # 1 
7931 1 2 0.589700 31.572001 46.159000 27.256001 # 2 
7932 1 2 0.589700 32.857002 45.361000 27.184999 # 2 
7933 1 1 -1.179400 32.337997 38.299999 32.376999 # 1 
7934 1 2 0.589700 32.079002 38.828003 31.623001 # 2 
7935 1 2 0.589700 32.882000 38.884998 32.903999 # 2 
7936 1 1 -1.179400 32.337997 45.910000 32.376999 # 1 
7937 1 2 0.589700 32.827999 46.664001 32.046001 # 2 
7938 1 2 0.589700 32.070999 45.433998 31.591000 # 2 
7939 1 1 -1.179400 27.066000 42.104996 30.074999 # 1 
7940 1 2 0.589700 27.592001 42.903999 30.046001 # 2 
7941 1 2 0.589700 26.540001 42.133999 29.275999 # 2 
7942 1 1 -1.179400 33.084000 42.104996 30.074999 # 1 
7943 1 2 0.589700 33.610001 42.076000 30.874001 # 2 
7944 1 2 0.589700 32.557999 41.306000 30.104000 # 2 
7945 1 1 -1.179400 25.481998 42.104996 32.396000 # 1 
7946 1 2 0.589700 26.024000 42.099998 31.607000 # 2 
7947 1 2 0.589700 25.767000 41.334999 32.888000 # 2 
7948 1 1 -1.179400 34.667999 42.104996 32.396000 # 1 
7949 1 2 0.589700 34.407001 42.878998 32.895000 # 2 
7950 1 2 0.589700 35.625000 42.122997 32.407001 # 2 
7951 1 1 -1.179400 25.481998 42.104996 27.754000 # 1 
7952 1 2 0.589700 24.525002 42.087002 27.743000 # 2 
7953 1 2 0.589700 25.743000 41.331001 27.255001 # 2 
7954 1 1 -1.179400 34.667999 42.104996 27.754000 # 1 
7955 1 2 0.589700 34.125999 42.110001 28.542999 # 2 
7956 1 2 0.589700 34.382999 42.875000 27.262001 # 2 
7957 1 1 -1.179400 28.653000 39.785000 30.074999 # 1 
7958 1 2 0.589700 28.110001 40.573002 30.079998 # 2 
7959 1 2 0.589700 28.368000 39.292999 30.845001 # 2 
7960 1 1 -1.179400 31.497000 39.785000 30.074999 # 1 
7961 1 2 0.589700 30.539999 39.772999 30.057001 # 2 
7962 1 2 0.589700 31.758001 39.285000 29.300999 # 2 
7963 1 1 -1.179400 28.653000 44.425003 30.074999 # 1 
7964 1 2 0.589700 28.392000 44.924999 30.848999 # 2 
7965 1 2 0.589700 29.610001 44.436996 30.093000 # 2 
7966 1 1 -1.179400 31.497000 44.425003 30.074999 # 1 
7967 1 2 0.589700 32.040001 43.637001 30.070000 # 2 
7968 1 2 0.589700 31.782000 44.917000 29.305000 # 2 
7969 1 1 -1.179400 24.059999 33.769001 25.481998 # 1 
7970 1 2 0.589700 24.841999 33.290001 25.755001 # 2 
7971 1 2 0.589700 24.062000 34.558998 26.021999 # 2 
7972 1 1 -1.179400 24.059999 33.769001 34.667999 # 1 
7973 1 2 0.589700 24.846001 33.285999 34.411999 # 2 
7974 1 2 0.589700 24.073999 33.759998 35.625000 # 2 
7975 1 1 -1.179400 30.074999 33.084000 24.059999 # 1 
7976 1 2 0.589700 30.104000 33.610001 24.858999 # 2 
7977 1 2 0.589700 30.874001 32.557999 24.089001 # 2 
7978 1 1 -1.179400 30.074999 25.481998 26.380999 # 1 
7979 1 2 0.589700 29.293001 25.755001 26.860001 # 2 
7980 1 2 0.589700 30.072998 26.021999 25.591000 # 2 
7981 1 1 -1.179400 30.074999 34.667999 26.380999 # 1 
7982 1 2 0.589700 29.289000 34.411999 26.863998 # 2 
7983 1 2 0.589700 30.060999 35.625000 26.389000 # 2 
7984 1 1 -1.179400 30.074999 25.481998 33.769001 # 1 
7985 1 2 0.589700 30.861000 25.738001 33.285999 # 2 
7986 1 2 0.589700 30.088999 24.525002 33.759998 # 2 
7987 1 1 -1.179400 30.074999 34.667999 33.769001 # 1 
7988 1 2 0.589700 30.077000 34.128002 34.558998 # 2 
7989 1 2 0.589700 30.857000 34.395000 33.290001 # 2 
7990 1 1 -1.179400 27.755001 28.653000 24.059999 # 1 
7991 1 2 0.589700 27.256001 28.381001 24.830000 # 2 
7992 1 2 0.589700 27.737000 29.609001 24.087999 # 2 
7993 1 1 -1.179400 26.380001 24.059999 31.497000 # 1 
7994 1 2 0.589700 26.879002 24.830000 31.768999 # 2 
7995 1 2 0.589700 26.398001 24.087999 30.541000 # 2 
7996 1 1 -1.179400 26.322998 27.773001 26.270000 # 1 
7997 1 2 0.589700 26.841000 27.184999 26.819000 # 2 
7998 1 2 0.589700 25.557001 27.256001 26.021000 # 2 
7999 1 1 -1.179400 26.322998 27.773001 33.880001 # 1 
8000 1 2 0.589700 26.781002 28.053999 34.673000 # 2 
8001 1 2 0.589700 25.555000 27.299999 34.202000 # 2 
8002 1 1 -1.179400 26.322998 32.376999 26.270000 # 1 
8003 1 2 0.589700 26.055000 31.591000 26.746002 # 2 
8004 1 2 0.589700 26.813000 32.046001 25.515999 # 2 
8005 1 1 -1.179400 26.322998 32.376999 33.880001 # 1 
8006 1 2 0.589700 26.867001 32.903999 33.294998 # 2 
8007 1 2 0.589700 26.063999 31.623001 33.352001 # 2 
8008 1 1 -1.179400 27.812000 26.270000 27.773001 # 1 
8009 1 2 0.589700 28.078999 26.746002 28.559000 # 2 
8010 1 2 0.589700 27.321999 25.515999 28.104000 # 2 
8011 1 1 -1.179400 27.812000 33.880001 27.773001 # 1 
8012 1 2 0.589700 28.071001 33.352001 28.527000 # 2 
8013 1 2 0.589700 27.268000 33.294998 27.246000 # 2 
8014 1 1 -1.179400 27.812000 26.270000 32.376999 # 1 
8015 1 2 0.589700 28.577999 26.021000 32.893997 # 2 
8016 1 2 0.589700 27.293999 26.819000 32.965000 # 2 
8017 1 1 -1.179400 27.812000 33.880001 32.376999 # 1 
8018 1 2 0.589700 28.580000 34.202000 32.850002 # 2 
8019 1 2 0.589700 27.354000 34.673000 32.096001 # 2 
8020 1 1 -1.179400 32.395000 28.653000 24.059999 # 1 
8021 1 2 0.589700 32.889999 28.351000 24.821999 # 2 
8022 1 2 0.589700 31.605000 28.113001 24.058001 # 2 
8023 1 1 -1.179400 33.770000 24.059999 31.497000 # 1 
8024 1 2 0.589700 33.275002 24.821999 31.799000 # 2 
8025 1 2 0.589700 34.560001 24.058001 32.037003 # 2 
8026 1 1 -1.179400 33.827000 27.773001 26.270000 # 1 
8027 1 2 0.589700 34.086002 28.527000 26.798000 # 2 
8028 1 2 0.589700 33.283001 27.246000 26.855000 # 2 
8029 1 1 -1.179400 33.827000 27.773001 33.880001 # 1 
8030 1 2 0.589700 33.336998 28.104000 34.634003 # 2 
8031 1 2 0.589700 34.094997 28.559000 33.403999 # 2 
8032 1 1 -1.179400 33.827000 32.376999 26.270000 # 1 
8033 1 2 0.589700 34.595001 32.850002 25.948000 # 2 
8034 1 2 0.589700 33.368999 32.096001 25.476999 # 2 
8035 1 1 -1.179400 33.827000 32.376999 33.880001 # 1 
8036 1 2 0.589700 34.593002 32.893997 34.128998 # 2 
8037 1 2 0.589700 33.307999 32.965000 33.331001 # 2 
8038 1 1 -1.179400 32.337997 26.270000 27.773001 # 1 
8039 1 2 0.589700 32.795998 25.476999 28.053999 # 2 
8040 1 2 0.589700 31.570000 25.948000 27.299999 # 2 
8041 1 1 -1.179400 32.337997 33.880001 27.773001 # 1 
8042 1 2 0.589700 31.572001 34.128998 27.256001 # 2 
8043 1 2 0.589700 32.857002 33.331001 27.184999 # 2 
8044 1 1 -1.179400 32.337997 26.270000 32.376999 # 1 
8045 1 2 0.589700 32.079002 26.798000 31.623001 # 2 
8046 1 2 0.589700 32.882000 26.855000 32.903999 # 2 
8047 1 1 -1.179400 32.337997 33.880001 32.376999 # 1 
8048 1 2 0.589700 32.827999 34.634003 32.046001 # 2 
8049 1 2 0.589700 32.070999 33.403999 31.591000 # 2 
8050 1 1 -1.179400 27.066000 30.074999 30.074999 # 1 
8051 1 2 0.589700 27.592001 30.874001 30.046001 # 2 
8052 1 2 0.589700 26.540001 30.104000 29.275999 # 2 
8053 1 1 -1.179400 33.084000 30.074999 30.074999 # 1 
8054 1 2 0.589700 33.610001 30.046001 30.874001 # 2 
8055 1 2 0.589700 32.557999 29.275999 30.104000 # 2 
8056 1 1 -1.179400 25.481998 30.074999 32.396000 # 1 
8057 1 2 0.589700 26.024000 30.070000 31.607000 # 2 
8058 1 2 0.589700 25.767000 29.305000 32.888000 # 2 
8059 1 1 -1.179400 34.667999 30.074999 32.396000 # 1 
8060 1 2 0.589700 34.407001 30.848999 32.895000 # 2 
8061 1 2 0.589700 35.625000 30.093000 32.407001 # 2 
8062 1 1 -1.179400 25.481998 30.074999 27.754000 # 1 
8063 1 2 0.589700 24.525002 30.057001 27.743000 # 2 
8064 1 2 0.589700 25.743000 29.300999 27.255001 # 2 
8065 1 1 -1.179400 34.667999 30.074999 27.754000 # 1 
8066 1 2 0.589700 34.125999 30.079998 28.542999 # 2 
8067 1 2 0.589700 34.382999 30.845001 27.262001 # 2 
8068 1 1 -1.179400 28.653000 27.755001 30.074999 # 1 
8069 1 2 0.589700 28.110001 28.542999 30.079998 # 2 
8070 1 2 0.589700 28.368000 27.263000 30.845001 # 2 
8071 1 1 -1.179400 31.497000 27.755001 30.074999 # 1 
8072 1 2 0.589700 30.539999 27.743000 30.057001 # 2 
8073 1 2 0.589700 31.758001 27.255001 29.300999 # 2 
8074 1 1 -1.179400 28.653000 32.395000 30.074999 # 1 
8075 1 2 0.589700 28.392000 32.895000 30.848999 # 2 
8076 1 2 0.589700 29.610001 32.407001 30.093000 # 2 
8077 1 1 -1.179400 31.497000 32.395000 30.074999 # 1 
8078 1 2 0.589700 32.040001 31.607000 30.070000 # 2 
8079 1 2 0.589700 31.782000 32.886997 29.305000 # 2 
8080 1 1 -1.179400 30.074999 27.066000 36.090000 # 1 
8081 1 2 0.589700 30.046001 26.540001 35.291000 # 2 
8082 1 2 0.589700 29.275999 27.592001 36.061001 # 2 
8083 1 1 -1.179400 27.755001 31.497000 36.090000 # 1 
8084 1 2 0.589700 28.545000 32.037003 36.091999 # 2 
8085 1 2 0.589700 27.260000 31.799000 35.327999 # 2 
8086 1 1 -1.179400 32.395000 31.497000 36.090000 # 1 
8087 1 2 0.589700 32.893997 31.768999 35.320000 # 2 
8088 1 2 0.589700 32.412998 30.541000 36.062000 # 2 
8089 1 1 -1.179400 24.059999 33.769001 37.512001 # 1 
8090 1 2 0.589700 24.841999 33.290001 37.785000 # 2 
8091 1 2 0.589700 24.062000 34.558998 38.052002 # 2 
8092 1 1 -1.179400 24.059999 33.769001 46.697998 # 1 
8093 1 2 0.589700 24.846001 33.285999 46.441998 # 2 
8094 1 2 0.589700 24.073999 33.759998 47.654999 # 2 
8095 1 1 -1.179400 30.074999 33.084000 36.090000 # 1 
8096 1 2 0.589700 30.104000 33.610001 36.889000 # 2 
8097 1 2 0.589700 30.874001 32.557999 36.118999 # 2 
8098 1 1 -1.179400 30.074999 25.481998 38.410999 # 1 
8099 1 2 0.589700 29.293001 25.755001 38.889999 # 2 
8100 1 2 0.589700 30.072998 26.021999 37.620998 # 2 
8101 1 1 -1.179400 30.074999 34.667999 38.410999 # 1 
8102 1 2 0.589700 29.289000 34.411999 38.894001 # 2 
8103 1 2 0.589700 30.060999 35.625000 38.419003 # 2 
8104 1 1 -1.179400 30.074999 25.481998 45.798996 # 1 
8105 1 2 0.589700 30.861000 25.738001 45.316002 # 2 
8106 1 2 0.589700 30.088999 24.525002 45.790001 # 2 
8107 1 1 -1.179400 30.074999 34.667999 45.798996 # 1 
8108 1 2 0.589700 30.077000 34.128002 46.588997 # 2 
8109 1 2 0.589700 30.857000 34.395000 45.320000 # 2 
8110 1 1 -1.179400 27.755001 28.653000 36.090000 # 1 
8111 1 2 0.589700 27.256001 28.381001 36.860001 # 2 
8112 1 2 0.589700 27.737000 29.609001 36.118000 # 2 
8113 1 1 -1.179400 26.380001 24.059999 43.526997 # 1 
8114 1 2 0.589700 26.879002 24.830000 43.799000 # 2 
8115 1 2 0.589700 26.398001 24.087999 42.570999 # 2 
8116 1 1 -1.179400 26.322998 27.773001 38.299999 # 1 
8117 1 2 0.589700 26.841000 27.184999 38.848999 # 2 
8118 1 2 0.589700 25.557001 27.256001 38.050999 # 2 
8119 1 1 -1.179400 26.322998 27.773001 45.910000 # 1 
8120 1 2 0.589700 26.781002 28.053999 46.702999 # 2 
8121 1 2 0.589700 25.555000 27.299999 46.231998 # 2 
8122 1 1 -1.179400 26.322998 32.376999 38.299999 # 1 
8123 1 2 0.589700 26.055000 31.591000 38.776001 # 2 
8124 1 2 0.589700 26.813000 32.046001 37.546001 # 2 
8125 1 1 -1.179400 26.322998 32.376999 45.910000 # 1 
8126 1 2 0.589700 26.867001 32.903999 45.324997 # 2 
8127 1 2 0.589700 26.063999 31.623001 45.382000 # 2 
8128 1 1 -1.179400 27.812000 26.270000 39.803001 # 1 
8129 1 2 0.589700 28.078999 26.746002 40.588997 # 2 
8130 1 2 0.589700 27.321999 25.515999 40.134003 # 2 
8131 1 1 -1.179400 27.812000 33.880001 39.803001 # 1 
8132 1 2 0.589700 28.071001 33.352001 40.556999 # 2 
8133 1 2 0.589700 27.268000 33.294998 39.276001 # 2 
8134 1 1 -1.179400 27.812000 26.270000 44.407001 # 1 
8135 1 2 0.589700 28.577999 26.021000 44.924004 # 2 
8136 1 2 0.589700 27.293999 26.819000 44.994999 # 2 
8137 1 1 -1.179400 27.812000 33.880001 44.407001 # 1 
8138 1 2 0.589700 28.580000 34.202000 44.879997 # 2 
8139 1 2 0.589700 27.354000 34.673000 44.125999 # 2 
8140 1 1 -1.179400 32.395000 28.653000 36.090000 # 1 
8141 1 2 0.589700 32.889999 28.351000 36.852001 # 2 
8142 1 2 0.589700 31.605000 28.113001 36.087997 # 2 
8143 1 1 -1.179400 33.770000 24.059999 43.526997 # 1 
8144 1 2 0.589700 33.275002 24.821999 43.828999 # 2 
8145 1 2 0.589700 34.560001 24.058001 44.067001 # 2 
8146 1 1 -1.179400 33.827000 27.773001 38.299999 # 1 
8147 1 2 0.589700 34.086002 28.527000 38.828003 # 2 
8148 1 2 0.589700 33.283001 27.246000 38.884998 # 2 
8149 1 1 -1.179400 33.827000 27.773001 45.910000 # 1 
8150 1 2 0.589700 33.336998 28.104000 46.664001 # 2 
8151 1 2 0.589700 34.094997 28.559000 45.433998 # 2 
8152 1 1 -1.179400 33.827000 32.376999 38.299999 # 1 
8153 1 2 0.589700 34.595001 32.850002 37.978001 # 2 
8154 1 2 0.589700 33.368999 32.096001 37.507000 # 2 
8155 1 1 -1.179400 33.827000 32.376999 45.910000 # 1 
8156 1 2 0.589700 34.593002 32.893997 46.159000 # 2 
8157 1 2 0.589700 33.307999 32.965000 45.361000 # 2 
8158 1 1 -1.179400 32.337997 26.270000 39.803001 # 1 
8159 1 2 0.589700 32.795998 25.476999 40.084000 # 2 
8160 1 2 0.589700 31.570000 25.948000 39.330002 # 2 
8161 1 1 -1.179400 32.337997 33.880001 39.803001 # 1 
8162 1 2 0.589700 31.572001 34.128998 39.285999 # 2 
8163 1 2 0.589700 32.857002 33.331001 39.215000 # 2 
8164 1 1 -1.179400 32.337997 26.270000 44.407001 # 1 
8165 1 2 0.589700 32.079002 26.798000 43.653000 # 2 
8166 1 2 0.589700 32.882000 26.855000 44.934002 # 2 
8167 1 1 -1.179400 32.337997 33.880001 44.407001 # 1 
8168 1 2 0.589700 32.827999 34.634003 44.076000 # 2 
8169 1 2 0.589700 32.070999 33.403999 43.621002 # 2 
8170 1 1 -1.179400 27.066000 30.074999 42.104996 # 1 
8171 1 2 0.589700 27.592001 30.874001 42.076000 # 2 
8172 1 2 0.589700 26.540001 30.104000 41.306000 # 2 
8173 1 1 -1.179400 33.084000 30.074999 42.104996 # 1 
8174 1 2 0.589700 33.610001 30.046001 42.903999 # 2 
8175 1 2 0.589700 32.557999 29.275999 42.133999 # 2 
8176 1 1 -1.179400 25.481998 30.074999 44.426003 # 1 
8177 1 2 0.589700 26.024000 30.070000 43.637001 # 2 
8178 1 2 0.589700 25.767000 29.305000 44.917999 # 2 
8179 1 1 -1.179400 34.667999 30.074999 44.426003 # 1 
8180 1 2 0.589700 34.407001 30.848999 44.924999 # 2 
8181 1 2 0.589700 35.625000 30.093000 44.436996 # 2 
8182 1 1 -1.179400 25.481998 30.074999 39.784000 # 1 
8183 1 2 0.589700 24.525002 30.057001 39.772999 # 2 
8184 1 2 0.589700 25.743000 29.300999 39.285000 # 2 
8185 1 1 -1.179400 34.667999 30.074999 39.784000 # 1 
8186 1 2 0.589700 34.125999 30.079998 40.573002 # 2 
8187 1 2 0.589700 34.382999 30.845001 39.292000 # 2 
8188 1 1 -1.179400 28.653000 27.755001 42.104996 # 1 
8189 1 2 0.589700 28.110001 28.542999 42.110001 # 2 
8190 1 2 0.589700 28.368000 27.263000 42.875000 # 2 
8191 1 1 -1.179400 31.497000 27.755001 42.104996 # 1 
8192 1 2 0.589700 30.539999 27.743000 42.087002 # 2 
8193 1 2 0.589700 31.758001 27.255001 41.331001 # 2 
8194 1 1 -1.179400 28.653000 32.395000 42.104996 # 1 
8195 1 2 0.589700 28.392000 32.895000 42.878998 # 2 
8196 1 2 0.589700 29.610001 32.407001 42.122997 # 2 
8197 1 1 -1.179400 31.497000 32.395000 42.104996 # 1 
8198 1 2 0.589700 32.040001 31.607000 42.099998 # 2 
8199 1 2 0.589700 31.782000 32.886997 41.334999 # 2 
8200 1 1 -1.179400 48.119999 24.059999 27.066000 # 1 
8201 1 2 0.589700 47.320999 24.089001 27.592001 # 2 
8202 1 2 0.589700 48.091003 24.858999 26.540001 # 2 
8203 1 1 -1.179400 48.119999 26.380999 25.481998 # 1 
8204 1 2 0.589700 47.334000 26.863998 25.738001 # 2 
8205 1 2 0.589700 48.105999 26.389000 24.525002 # 2 
8206 1 1 -1.179400 48.119999 26.380999 34.667999 # 1 
8207 1 2 0.589700 47.337997 26.860001 34.395000 # 2 
8208 1 2 0.589700 48.118000 25.591000 34.128002 # 2 
8209 1 1 -1.179400 36.090000 36.090000 33.084000 # 1 
8210 1 2 0.589700 36.118999 35.291000 33.610001 # 2 
8211 1 2 0.589700 36.889000 36.061001 32.557999 # 2 
8212 1 1 -1.179400 38.410000 36.090000 28.653000 # 1 
8213 1 2 0.589700 37.620003 36.091999 28.113001 # 2 
8214 1 2 0.589700 38.904999 35.327999 28.351000 # 2 
8215 1 1 -1.179400 45.799999 36.090000 28.653000 # 1 
8216 1 2 0.589700 45.300999 35.320000 28.381001 # 2 
8217 1 2 0.589700 45.781998 36.062000 29.609001 # 2 
8218 1 1 -1.179400 36.090000 36.090000 27.066000 # 1 
8219 1 2 0.589700 35.291000 36.118999 27.592001 # 2 
8220 1 2 0.589700 36.061001 36.889000 26.540001 # 2 
8221 1 1 -1.179400 36.090000 38.410999 25.481998 # 1 
8222 1 2 0.589700 35.304001 38.894001 25.738001 # 2 
8223 1 2 0.589700 36.076000 38.419003 24.525002 # 2 
8224 1 1 -1.179400 36.090000 38.410999 34.667999 # 1 
8225 1 2 0.589700 35.308002 38.889999 34.395000 # 2 
8226 1 2 0.589700 36.087997 37.620998 34.128002 # 2 
8227 1 1 -1.179400 36.090000 45.798996 25.481998 # 1 
8228 1 2 0.589700 36.872002 45.320000 25.755001 # 2 
8229 1 2 0.589700 36.091999 46.588997 26.021999 # 2 
8230 1 1 -1.179400 36.090000 45.798996 34.667999 # 1 
8231 1 2 0.589700 36.875999 45.316002 34.411999 # 2 
8232 1 2 0.589700 36.104000 45.790001 35.625000 # 2 
8233 1 1 -1.179400 42.104996 45.114002 24.059999 # 1 
8234 1 2 0.589700 42.133999 45.639999 24.858999 # 2 
8235 1 2 0.589700 42.903999 44.587997 24.089001 # 2 
8236 1 1 -1.179400 42.104996 37.512001 26.380999 # 1 
8237 1 2 0.589700 41.322998 37.785000 26.860001 # 2 
8238 1 2 0.589700 42.103001 38.052002 25.591000 # 2 
8239 1 1 -1.179400 42.104996 46.697998 26.380999 # 1 
8240 1 2 0.589700 41.319000 46.441998 26.863998 # 2 
8241 1 2 0.589700 42.090996 47.654999 26.389000 # 2 
8242 1 1 -1.179400 42.104996 37.512001 33.769001 # 1 
8243 1 2 0.589700 42.891003 37.767998 33.285999 # 2 
8244 1 2 0.589700 42.118996 36.555000 33.759998 # 2 
8245 1 1 -1.179400 42.104996 46.697998 33.769001 # 1 
8246 1 2 0.589700 42.107002 46.157997 34.558998 # 2 
8247 1 2 0.589700 42.887001 46.424999 33.290001 # 2 
8248 1 1 -1.179400 39.785000 40.682999 24.059999 # 1 
8249 1 2 0.589700 39.285999 40.410999 24.830000 # 2 
8250 1 2 0.589700 39.767002 41.639000 24.087999 # 2 
8251 1 1 -1.179400 38.410000 36.090000 31.497000 # 1 
8252 1 2 0.589700 38.909000 36.860001 31.768999 # 2 
8253 1 2 0.589700 38.427998 36.118000 30.541000 # 2 
8254 1 1 -1.179400 38.353001 39.803001 26.270000 # 1 
8255 1 2 0.589700 38.870998 39.215000 26.819000 # 2 
8256 1 2 0.589700 37.586998 39.285999 26.021000 # 2 
8257 1 1 -1.179400 38.353001 39.803001 33.880001 # 1 
8258 1 2 0.589700 38.811001 40.084000 34.673000 # 2 
8259 1 2 0.589700 37.584999 39.330002 34.202000 # 2 
8260 1 1 -1.179400 38.353001 44.407001 26.270000 # 1 
8261 1 2 0.589700 38.084999 43.621002 26.746002 # 2 
8262 1 2 0.589700 38.842999 44.076000 25.515999 # 2 
8263 1 1 -1.179400 38.353001 44.407001 33.880001 # 1 
8264 1 2 0.589700 38.896999 44.934002 33.294998 # 2 
8265 1 2 0.589700 38.094002 43.653000 33.352001 # 2 
8266 1 1 -1.179400 39.841999 38.299999 27.773001 # 1 
8267 1 2 0.589700 40.109001 38.776001 28.559000 # 2 
8268 1 2 0.589700 39.352001 37.546001 28.104000 # 2 
8269 1 1 -1.179400 39.841999 45.910000 27.773001 # 1 
8270 1 2 0.589700 40.100998 45.382000 28.527000 # 2 
8271 1 2 0.589700 39.298000 45.324997 27.246000 # 2 
8272 1 1 -1.179400 39.841999 38.299999 32.376999 # 1 
8273 1 2 0.589700 40.608002 38.050999 32.893997 # 2 
8274 1 2 0.589700 39.324001 38.848999 32.965000 # 2 
8275 1 1 -1.179400 39.841999 45.910000 32.376999 # 1 
8276 1 2 0.589700 40.610001 46.231998 32.850002 # 2 
8277 1 2 0.589700 39.383999 46.702999 32.096001 # 2 
8278 1 1 -1.179400 44.425003 40.682999 24.059999 # 1 
8279 1 2 0.589700 44.920002 40.380997 24.821999 # 2 
8280 1 2 0.589700 43.635002 40.142998 24.058001 # 2 
8281 1 1 -1.179400 45.799999 36.090000 31.497000 # 1 
8282 1 2 0.589700 45.305000 36.852001 31.799000 # 2 
8283 1 2 0.589700 46.590000 36.087997 32.037003 # 2 
8284 1 1 -1.179400 45.857002 39.803001 26.270000 # 1 
8285 1 2 0.589700 46.115997 40.556999 26.798000 # 2 
8286 1 2 0.589700 45.313000 39.276001 26.855000 # 2 
8287 1 1 -1.179400 45.857002 39.803001 33.880001 # 1 
8288 1 2 0.589700 45.367004 40.134003 34.634003 # 2 
8289 1 2 0.589700 46.125000 40.588997 33.403999 # 2 
8290 1 1 -1.179400 45.857002 44.407001 26.270000 # 1 
8291 1 2 0.589700 46.625000 44.879997 25.948000 # 2 
8292 1 2 0.589700 45.398998 44.125999 25.476999 # 2 
8293 1 1 -1.179400 45.857002 44.407001 33.880001 # 1 
8294 1 2 0.589700 46.623001 44.924004 34.128998 # 2 
8295 1 2 0.589700 45.338001 44.994999 33.331001 # 2 
8296 1 1 -1.179400 44.368000 38.299999 27.773001 # 1 
8297 1 2 0.589700 44.826004 37.507000 28.053999 # 2 
8298 1 2 0.589700 43.600002 37.978001 27.299999 # 2 
8299 1 1 -1.179400 44.368000 45.910000 27.773001 # 1 
8300 1 2 0.589700 43.601997 46.159000 27.256001 # 2 
8301 1 2 0.589700 44.887001 45.361000 27.184999 # 2 
8302 1 1 -1.179400 44.368000 38.299999 32.376999 # 1 
8303 1 2 0.589700 44.109001 38.828003 31.623001 # 2 
8304 1 2 0.589700 44.911999 38.884998 32.903999 # 2 
8305 1 1 -1.179400 44.368000 45.910000 32.376999 # 1 
8306 1 2 0.589700 44.857998 46.664001 32.046001 # 2 
8307 1 2 0.589700 44.100998 45.433998 31.591000 # 2 
8308 1 1 -1.179400 39.096001 42.104996 30.074999 # 1 
8309 1 2 0.589700 39.621998 42.903999 30.046001 # 2 
8310 1 2 0.589700 38.570000 42.133999 29.275999 # 2 
8311 1 1 -1.179400 45.114002 42.104996 30.074999 # 1 
8312 1 2 0.589700 45.639999 42.076000 30.874001 # 2 
8313 1 2 0.589700 44.587997 41.306000 30.104000 # 2 
8314 1 1 -1.179400 37.512001 42.104996 32.396000 # 1 
8315 1 2 0.589700 38.054001 42.099998 31.607000 # 2 
8316 1 2 0.589700 37.797001 41.334999 32.888000 # 2 
8317 1 1 -1.179400 46.697998 42.104996 32.396000 # 1 
8318 1 2 0.589700 46.437000 42.878998 32.895000 # 2 
8319 1 2 0.589700 47.654999 42.122997 32.407001 # 2 
8320 1 1 -1.179400 37.512001 42.104996 27.754000 # 1 
8321 1 2 0.589700 36.555000 42.087002 27.743000 # 2 
8322 1 2 0.589700 37.772999 41.331001 27.255001 # 2 
8323 1 1 -1.179400 46.697998 42.104996 27.754000 # 1 
8324 1 2 0.589700 46.156002 42.110001 28.542999 # 2 
8325 1 2 0.589700 46.413002 42.875000 27.262001 # 2 
8326 1 1 -1.179400 40.682999 39.785000 30.074999 # 1 
8327 1 2 0.589700 40.139999 40.573002 30.079998 # 2 
8328 1 2 0.589700 40.398003 39.292999 30.845001 # 2 
8329 1 1 -1.179400 43.526997 39.785000 30.074999 # 1 
8330 1 2 0.589700 42.570000 39.772999 30.057001 # 2 
8331 1 2 0.589700 43.787998 39.285000 29.300999 # 2 
8332 1 1 -1.179400 40.682999 44.425003 30.074999 # 1 
8333 1 2 0.589700 40.422001 44.924999 30.848999 # 2 
8334 1 2 0.589700 41.639999 44.436996 30.093000 # 2 
8335 1 1 -1.179400 43.526997 44.425003 30.074999 # 1 
8336 1 2 0.589700 44.070000 43.637001 30.070000 # 2 
8337 1 2 0.589700 43.811996 44.917000 29.305000 # 2 
8338 1 1 -1.179400 42.104996 27.066000 36.090000 # 1 
8339 1 2 0.589700 42.076000 26.540001 35.291000 # 2 
8340 1 2 0.589700 41.306000 27.592001 36.061001 # 2 
8341 1 1 -1.179400 39.785000 31.497000 36.090000 # 1 
8342 1 2 0.589700 40.574997 32.037003 36.091999 # 2 
8343 1 2 0.589700 39.290001 31.799000 35.327999 # 2 
8344 1 1 -1.179400 44.425003 31.497000 36.090000 # 1 
8345 1 2 0.589700 44.924004 31.768999 35.320000 # 2 
8346 1 2 0.589700 44.443001 30.541000 36.062000 # 2 
8347 1 1 -1.179400 36.090000 24.059999 39.096001 # 1 
8348 1 2 0.589700 35.291000 24.089001 39.621998 # 2 
8349 1 2 0.589700 36.061001 24.858999 38.570000 # 2 
8350 1 1 -1.179400 36.090000 26.380999 37.512001 # 1 
8351 1 2 0.589700 35.304001 26.863998 37.767998 # 2 
8352 1 2 0.589700 36.076000 26.389000 36.555000 # 2 
8353 1 1 -1.179400 36.090000 26.380999 46.697998 # 1 
8354 1 2 0.589700 35.308002 26.860001 46.424999 # 2 
8355 1 2 0.589700 36.087997 25.591000 46.157997 # 2 
8356 1 1 -1.179400 36.090000 33.769001 37.512001 # 1 
8357 1 2 0.589700 36.872002 33.290001 37.785000 # 2 
8358 1 2 0.589700 36.091999 34.558998 38.052002 # 2 
8359 1 1 -1.179400 36.090000 33.769001 46.697998 # 1 
8360 1 2 0.589700 36.875999 33.285999 46.441998 # 2 
8361 1 2 0.589700 36.104000 33.759998 47.654999 # 2 
8362 1 1 -1.179400 42.104996 33.084000 36.090000 # 1 
8363 1 2 0.589700 42.133999 33.610001 36.889000 # 2 
8364 1 2 0.589700 42.903999 32.557999 36.118999 # 2 
8365 1 1 -1.179400 42.104996 25.481998 38.410999 # 1 
8366 1 2 0.589700 41.322998 25.755001 38.889999 # 2 
8367 1 2 0.589700 42.103001 26.021999 37.620998 # 2 
8368 1 1 -1.179400 42.104996 34.667999 38.410999 # 1 
8369 1 2 0.589700 41.319000 34.411999 38.894001 # 2 
8370 1 2 0.589700 42.090996 35.625000 38.419003 # 2 
8371 1 1 -1.179400 42.104996 25.481998 45.798996 # 1 
8372 1 2 0.589700 42.891003 25.738001 45.316002 # 2 
8373 1 2 0.589700 42.118996 24.525002 45.790001 # 2 
8374 1 1 -1.179400 42.104996 34.667999 45.798996 # 1 
8375 1 2 0.589700 42.107002 34.128002 46.588997 # 2 
8376 1 2 0.589700 42.887001 34.395000 45.320000 # 2 
8377 1 1 -1.179400 39.785000 28.653000 36.090000 # 1 
8378 1 2 0.589700 39.285999 28.381001 36.860001 # 2 
8379 1 2 0.589700 39.767002 29.609001 36.118000 # 2 
8380 1 1 -1.179400 38.410000 24.059999 43.526997 # 1 
8381 1 2 0.589700 38.909000 24.830000 43.799000 # 2 
8382 1 2 0.589700 38.427998 24.087999 42.570999 # 2 
8383 1 1 -1.179400 38.353001 27.773001 38.299999 # 1 
8384 1 2 0.589700 38.870998 27.184999 38.848999 # 2 
8385 1 2 0.589700 37.586998 27.256001 38.050999 # 2 
8386 1 1 -1.179400 38.353001 27.773001 45.910000 # 1 
8387 1 2 0.589700 38.811001 28.053999 46.702999 # 2 
8388 1 2 0.589700 37.584999 27.299999 46.231998 # 2 
8389 1 1 -1.179400 38.353001 32.376999 38.299999 # 1 
8390 1 2 0.589700 38.084999 31.591000 38.776001 # 2 
8391 1 2 0.589700 38.842999 32.046001 37.546001 # 2 
8392 1 1 -1.179400 38.353001 32.376999 45.910000 # 1 
8393 1 2 0.589700 38.896999 32.903999 45.324997 # 2 
8394 1 2 0.589700 38.094002 31.623001 45.382000 # 2 
8395 1 1 -1.179400 39.841999 26.270000 39.803001 # 1 
8396 1 2 0.589700 40.109001 26.746002 40.588997 # 2 
8397 1 2 0.589700 39.352001 25.515999 40.134003 # 2 
8398 1 1 -1.179400 39.841999 33.880001 39.803001 # 1 
8399 1 2 0.589700 40.100998 33.352001 40.556999 # 2 
8400 1 2 0.589700 39.298000 33.294998 39.276001 # 2 
8401 1 1 -1.179400 39.841999 26.270000 44.407001 # 1 
8402 1 2 0.589700 40.608002 26.021000 44.924004 # 2 
8403 1 2 0.589700 39.324001 26.819000 44.994999 # 2 
8404 1 1 -1.179400 39.841999 33.880001 44.407001 # 1 
8405 1 2 0.589700 40.610001 34.202000 44.879997 # 2 
8406 1 2 0.589700 39.383999 34.673000 44.125999 # 2 
8407 1 1 -1.179400 44.425003 28.653000 36.090000 # 1 
8408 1 2 0.589700 44.920002 28.351000 36.852001 # 2 
8409 1 2 0.589700 43.635002 28.113001 36.087997 # 2 
8410 1 1 -1.179400 45.799999 24.059999 43.526997 # 1 
8411 1 2 0.589700 45.305000 24.821999 43.828999 # 2 
8412 1 2 0.589700 46.590000 24.058001 44.067001 # 2 
8413 1 1 -1.179400 45.857002 27.773001 38.299999 # 1 
8414 1 2 0.589700 46.115997 28.527000 38.828003 # 2 
8415 1 2 0.589700 45.313000 27.246000 38.884998 # 2 
8416 1 1 -1.179400 45.857002 27.773001 45.910000 # 1 
8417 1 2 0.589700 45.367004 28.104000 46.664001 # 2 
8418 1 2 0.589700 46.125000 28.559000 45.433998 # 2 
8419 1 1 -1.179400 45.857002 32.376999 38.299999 # 1 
8420 1 2 0.589700 46.625000 32.850002 37.978001 # 2 
8421 1 2 0.589700 45.398998 32.096001 37.507000 # 2 
8422 1 1 -1.179400 45.857002 32.376999 45.910000 # 1 
8423 1 2 0.589700 46.623001 32.893997 46.159000 # 2 
8424 1 2 0.589700 45.338001 32.965000 45.361000 # 2 
8425 1 1 -1.179400 44.368000 26.270000 39.803001 # 1 
8426 1 2 0.589700 44.826004 25.476999 40.084000 # 2 
8427 1 2 0.589700 43.600002 25.948000 39.330002 # 2 
8428 1 1 -1.179400 44.368000 33.880001 39.803001 # 1 
8429 1 2 0.589700 43.601997 34.128998 39.285999 # 2 
8430 1 2 0.589700 44.887001 33.331001 39.215000 # 2 
8431 1 1 -1.179400 44.368000 26.270000 44.407001 # 1 
8432 1 2 0.589700 44.109001 26.798000 43.653000 # 2 
8433 1 2 0.589700 44.911999 26.855000 44.934002 # 2 
8434 1 1 -1.179400 44.368000 33.880001 44.407001 # 1 
8435 1 2 0.589700 44.857998 34.634003 44.076000 # 2 
8436 1 2 0.589700 44.100998 33.403999 43.621002 # 2 
8437 1 1 -1.179400 39.096001 30.074999 42.104996 # 1 
8438 1 2 0.589700 39.621998 30.874001 42.076000 # 2 
8439 1 2 0.589700 38.570000 30.104000 41.306000 # 2 
8440 1 1 -1.179400 45.114002 30.074999 42.104996 # 1 
8441 1 2 0.589700 45.639999 30.046001 42.903999 # 2 
8442 1 2 0.589700 44.587997 29.275999 42.133999 # 2 
8443 1 1 -1.179400 37.512001 30.074999 44.426003 # 1 
8444 1 2 0.589700 38.054001 30.070000 43.637001 # 2 
8445 1 2 0.589700 37.797001 29.305000 44.917999 # 2 
8446 1 1 -1.179400 46.697998 30.074999 44.426003 # 1 
8447 1 2 0.589700 46.437000 30.848999 44.924999 # 2 
8448 1 2 0.589700 47.654999 30.093000 44.436996 # 2 
8449 1 1 -1.179400 37.512001 30.074999 39.784000 # 1 
8450 1 2 0.589700 36.555000 30.057001 39.772999 # 2 
8451 1 2 0.589700 37.772999 29.300999 39.285000 # 2 
8452 1 1 -1.179400 46.697998 30.074999 39.784000 # 1 
8453 1 2 0.589700 46.156002 30.079998 40.573002 # 2 
8454 1 2 0.589700 46.413002 30.845001 39.292000 # 2 
8455 1 1 -1.179400 40.682999 27.755001 42.104996 # 1 
8456 1 2 0.589700 40.139999 28.542999 42.110001 # 2 
8457 1 2 0.589700 40.398003 27.263000 42.875000 # 2 
8458 1 1 -1.179400 43.526997 27.755001 42.104996 # 1 
8459 1 2 0.589700 42.570000 27.743000 42.087002 # 2 
8460 1 2 0.589700 43.787998 27.255001 41.331001 # 2 
8461 1 1 -1.179400 40.682999 32.395000 42.104996 # 1 
8462 1 2 0.589700 40.422001 32.895000 42.878998 # 2 
8463 1 2 0.589700 41.639999 32.407001 42.122997 # 2 
8464 1 1 -1.179400 43.526997 32.395000 42.104996 # 1 
8465 1 2 0.589700 44.070000 31.607000 42.099998 # 2 
8466 1 2 0.589700 43.811996 32.886997 41.334999 # 2 
8467 1 1 -1.179400 24.059999 48.119999 33.084000 # 1 
8468 1 2 0.589700 24.089001 47.320999 33.610001 # 2 
8469 1 2 0.589700 24.858999 48.091003 32.557999 # 2 
8470 1 1 -1.179400 26.380001 48.119999 28.653000 # 1 
8471 1 2 0.589700 25.590000 48.122002 28.113001 # 2 
8472 1 2 0.589700 26.875000 47.357998 28.351000 # 2 
8473 1 1 -1.179400 33.770000 48.119999 28.653000 # 1 
8474 1 2 0.589700 33.271000 47.350002 28.381001 # 2 
8475 1 2 0.589700 33.751999 48.091999 29.609001 # 2 
8476 1 1 -1.179400 30.074999 39.096001 36.090000 # 1 
8477 1 2 0.589700 30.046001 38.570000 35.291000 # 2 
8478 1 2 0.589700 29.275999 39.621998 36.061001 # 2 
8479 1 1 -1.179400 27.755001 43.526997 36.090000 # 1 
8480 1 2 0.589700 28.545000 44.067001 36.091999 # 2 
8481 1 2 0.589700 27.260000 43.828999 35.327999 # 2 
8482 1 1 -1.179400 32.395000 43.526997 36.090000 # 1 
8483 1 2 0.589700 32.893997 43.799000 35.320000 # 2 
8484 1 2 0.589700 32.412998 42.570999 36.062000 # 2 
8485 1 1 -1.179400 24.059999 36.090000 45.114002 # 1 
8486 1 2 0.589700 24.089001 35.291000 45.639999 # 2 
8487 1 2 0.589700 24.858999 36.061001 44.587997 # 2 
8488 1 1 -1.179400 26.380001 36.090000 40.682999 # 1 
8489 1 2 0.589700 25.590000 36.091999 40.142998 # 2 
8490 1 2 0.589700 26.875000 35.327999 40.380997 # 2 
8491 1 1 -1.179400 33.770000 36.090000 40.682999 # 1 
8492 1 2 0.589700 33.271000 35.320000 40.410999 # 2 
8493 1 2 0.589700 33.751999 36.062000 41.639000 # 2 
8494 1 1 -1.179400 24.059999 45.798996 37.512001 # 1 
8495 1 2 0.589700 24.841999 45.320000 37.785000 # 2 
8496 1 2 0.589700 24.062000 46.588997 38.052002 # 2 
8497 1 1 -1.179400 24.059999 45.798996 46.697998 # 1 
8498 1 2 0.589700 24.846001 45.316002 46.441998 # 2 
8499 1 2 0.589700 24.073999 45.790001 47.654999 # 2 
8500 1 1 -1.179400 30.074999 45.114002 36.090000 # 1 
8501 1 2 0.589700 30.104000 45.639999 36.889000 # 2 
8502 1 2 0.589700 30.874001 44.587997 36.118999 # 2 
8503 1 1 -1.179400 30.074999 37.512001 38.410999 # 1 
8504 1 2 0.589700 29.293001 37.785000 38.889999 # 2 
8505 1 2 0.589700 30.072998 38.052002 37.620998 # 2 
8506 1 1 -1.179400 30.074999 46.697998 38.410999 # 1 
8507 1 2 0.589700 29.289000 46.441998 38.894001 # 2 
8508 1 2 0.589700 30.060999 47.654999 38.419003 # 2 
8509 1 1 -1.179400 30.074999 37.512001 45.798996 # 1 
8510 1 2 0.589700 30.861000 37.767998 45.316002 # 2 
8511 1 2 0.589700 30.088999 36.555000 45.790001 # 2 
8512 1 1 -1.179400 30.074999 46.697998 45.798996 # 1 
8513 1 2 0.589700 30.077000 46.157997 46.588997 # 2 
8514 1 2 0.589700 30.857000 46.424999 45.320000 # 2 
8515 1 1 -1.179400 27.755001 40.682999 36.090000 # 1 
8516 1 2 0.589700 27.256001 40.410999 36.860001 # 2 
8517 1 2 0.589700 27.737000 41.639000 36.118000 # 2 
8518 1 1 -1.179400 26.380001 36.090000 43.526997 # 1 
8519 1 2 0.589700 26.879002 36.860001 43.799000 # 2 
8520 1 2 0.589700 26.398001 36.118000 42.570999 # 2 
8521 1 1 -1.179400 26.322998 39.803001 38.299999 # 1 
8522 1 2 0.589700 26.841000 39.215000 38.848999 # 2 
8523 1 2 0.589700 25.557001 39.285999 38.050999 # 2 
8524 1 1 -1.179400 26.322998 39.803001 45.910000 # 1 
8525 1 2 0.589700 26.781002 40.084000 46.702999 # 2 
8526 1 2 0.589700 25.555000 39.330002 46.231998 # 2 
8527 1 1 -1.179400 26.322998 44.407001 38.299999 # 1 
8528 1 2 0.589700 26.055000 43.621002 38.776001 # 2 
8529 1 2 0.589700 26.813000 44.076000 37.546001 # 2 
8530 1 1 -1.179400 26.322998 44.407001 45.910000 # 1 
8531 1 2 0.589700 26.867001 44.934002 45.324997 # 2 
8532 1 2 0.589700 26.063999 43.653000 45.382000 # 2 
8533 1 1 -1.179400 27.812000 38.299999 39.803001 # 1 
8534 1 2 0.589700 28.078999 38.776001 40.588997 # 2 
8535 1 2 0.589700 27.321999 37.546001 40.134003 # 2 
8536 1 1 -1.179400 27.812000 45.910000 39.803001 # 1 
8537 1 2 0.589700 28.071001 45.382000 40.556999 # 2 
8538 1 2 0.589700 27.268000 45.324997 39.276001 # 2 
8539 1 1 -1.179400 27.812000 38.299999 44.407001 # 1 
8540 1 2 0.589700 28.577999 38.050999 44.924004 # 2 
8541 1 2 0.589700 27.293999 38.848999 44.994999 # 2 
8542 1 1 -1.179400 27.812000 45.910000 44.407001 # 1 
8543 1 2 0.589700 28.580000 46.231998 44.879997 # 2 
8544 1 2 0.589700 27.354000 46.702999 44.125999 # 2 
8545 1 1 -1.179400 32.395000 40.682999 36.090000 # 1 
8546 1 2 0.589700 32.889999 40.380997 36.852001 # 2 
8547 1 2 0.589700 31.605000 40.142998 36.087997 # 2 
8548 1 1 -1.179400 33.770000 36.090000 43.526997 # 1 
8549 1 2 0.589700 33.275002 36.852001 43.828999 # 2 
8550 1 2 0.589700 34.560001 36.087997 44.067001 # 2 
8551 1 1 -1.179400 33.827000 39.803001 38.299999 # 1 
8552 1 2 0.589700 34.086002 40.556999 38.828003 # 2 
8553 1 2 0.589700 33.283001 39.276001 38.884998 # 2 
8554 1 1 -1.179400 33.827000 39.803001 45.910000 # 1 
8555 1 2 0.589700 33.336998 40.134003 46.664001 # 2 
8556 1 2 0.589700 34.094997 40.588997 45.433998 # 2 
8557 1 1 -1.179400 33.827000 44.407001 38.299999 # 1 
8558 1 2 0.589700 34.595001 44.879997 37.978001 # 2 
8559 1 2 0.589700 33.368999 44.125999 37.507000 # 2 
8560 1 1 -1.179400 33.827000 44.407001 45.910000 # 1 
8561 1 2 0.589700 34.593002 44.924004 46.159000 # 2 
8562 1 2 0.589700 33.307999 44.994999 45.361000 # 2 
8563 1 1 -1.179400 32.337997 38.299999 39.803001 # 1 
8564 1 2 0.589700 32.795998 37.507000 40.084000 # 2 
8565 1 2 0.589700 31.570000 37.978001 39.330002 # 2 
8566 1 1 -1.179400 32.337997 45.910000 39.803001 # 1 
8567 1 2 0.589700 31.572001 46.159000 39.285999 # 2 
8568 1 2 0.589700 32.857002 45.361000 39.215000 # 2 
8569 1 1 -1.179400 32.337997 38.299999 44.407001 # 1 
8570 1 2 0.589700 32.079002 38.828003 43.653000 # 2 
8571 1 2 0.589700 32.882000 38.884998 44.934002 # 2 
8572 1 1 -1.179400 32.337997 45.910000 44.407001 # 1 
8573 1 2 0.589700 32.827999 46.664001 44.076000 # 2 
8574 1 2 0.589700 32.070999 45.433998 43.621002 # 2 
8575 1 1 -1.179400 27.066000 42.104996 42.104996 # 1 
8576 1 2 0.589700 27.592001 42.903999 42.076000 # 2 
8577 1 2 0.589700 26.540001 42.133999 41.306000 # 2 
8578 1 1 -1.179400 33.084000 42.104996 42.104996 # 1 
8579 1 2 0.589700 33.610001 42.076000 42.903999 # 2 
8580 1 2 0.589700 32.557999 41.306000 42.133999 # 2 
8581 1 1 -1.179400 25.481998 42.104996 44.426003 # 1 
8582 1 2 0.589700 26.024000 42.099998 43.637001 # 2 
8583 1 2 0.589700 25.767000 41.334999 44.917999 # 2 
8584 1 1 -1.179400 34.667999 42.104996 44.426003 # 1 
8585 1 2 0.589700 34.407001 42.878998 44.924999 # 2 
8586 1 2 0.589700 35.625000 42.122997 44.436996 # 2 
8587 1 1 -1.179400 25.481998 42.104996 39.784000 # 1 
8588 1 2 0.589700 24.525002 42.087002 39.772999 # 2 
8589 1 2 0.589700 25.743000 41.331001 39.285000 # 2 
8590 1 1 -1.179400 34.667999 42.104996 39.784000 # 1 
8591 1 2 0.589700 34.125999 42.110001 40.573002 # 2 
8592 1 2 0.589700 34.382999 42.875000 39.292000 # 2 
8593 1 1 -1.179400 28.653000 39.785000 42.104996 # 1 
8594 1 2 0.589700 28.110001 40.573002 42.110001 # 2 
8595 1 2 0.589700 28.368000 39.292999 42.875000 # 2 
8596 1 1 -1.179400 31.497000 39.785000 42.104996 # 1 
8597 1 2 0.589700 30.539999 39.772999 42.087002 # 2 
8598 1 2 0.589700 31.758001 39.285000 41.331001 # 2 
8599 1 1 -1.179400 28.653000 44.425003 42.104996 # 1 
8600 1 2 0.589700 28.392000 44.924999 42.878998 # 2 
8601 1 2 0.589700 29.610001 44.436996 42.122997 # 2 
8602 1 1 -1.179400 31.497000 44.425003 42.104996 # 1 
8603 1 2 0.589700 32.040001 43.637001 42.099998 # 2 
8604 1 2 0.589700 31.782000 44.917000 41.334999 # 2 
8605 1 1 -1.179400 48.119999 36.090000 27.066000 # 1 
8606 1 2 0.589700 47.320999 36.118999 27.592001 # 2 
8607 1 2 0.589700 48.091003 36.889000 26.540001 # 2 
8608 1 1 -1.179400 48.119999 38.410999 25.481998 # 1 
8609 1 2 0.589700 47.334000 38.894001 25.738001 # 2 
8610 1 2 0.589700 48.105999 38.419003 24.525002 # 2 
8611 1 1 -1.179400 48.119999 38.410999 34.667999 # 1 
8612 1 2 0.589700 47.337997 38.889999 34.395000 # 2 
8613 1 2 0.589700 48.118000 37.620998 34.128002 # 2 
8614 1 1 -1.179400 36.090000 48.119999 33.084000 # 1 
8615 1 2 0.589700 36.118999 47.320999 33.610001 # 2 
8616 1 2 0.589700 36.889000 48.091003 32.557999 # 2 
8617 1 1 -1.179400 38.410000 48.119999 28.653000 # 1 
8618 1 2 0.589700 37.620003 48.122002 28.113001 # 2 
8619 1 2 0.589700 38.904999 47.357998 28.351000 # 2 
8620 1 1 -1.179400 45.799999 48.119999 28.653000 # 1 
8621 1 2 0.589700 45.300999 47.350002 28.381001 # 2 
8622 1 2 0.589700 45.781998 48.091999 29.609001 # 2 
8623 1 1 -1.179400 42.104996 39.096001 36.090000 # 1 
8624 1 2 0.589700 42.076000 38.570000 35.291000 # 2 
8625 1 2 0.589700 41.306000 39.621998 36.061001 # 2 
8626 1 1 -1.179400 39.785000 43.526997 36.090000 # 1 
8627 1 2 0.589700 40.574997 44.067001 36.091999 # 2 
8628 1 2 0.589700 39.290001 43.828999 35.327999 # 2 
8629 1 1 -1.179400 44.425003 43.526997 36.090000 # 1 
8630 1 2 0.589700 44.924004 43.799000 35.320000 # 2 
8631 1 2 0.589700 44.443001 42.570999 36.062000 # 2 
8632 1 1 -1.179400 36.090000 36.090000 45.114002 # 1 
8633 1 2 0.589700 36.118999 35.291000 45.639999 # 2 
8634 1 2 0.589700 36.889000 36.061001 44.587997 # 2 
8635 1 1 -1.179400 38.410000 36.090000 40.682999 # 1 
8636 1 2 0.589700 37.620003 36.091999 40.142998 # 2 
8637 1 2 0.589700 38.904999 35.327999 40.380997 # 2 
8638 1 1 -1.179400 45.799999 36.090000 40.682999 # 1 
8639 1 2 0.589700 45.300999 35.320000 40.410999 # 2 
8640 1 2 0.589700 45.781998 36.062000 41.639000 # 2 
8641 1 1 -1.179400 36.090000 36.090000 39.096001 # 1 
8642 1 2 0.589700 35.291000 36.118999 39.621998 # 2 
8643 1 2 0.589700 36.061001 36.889000 38.570000 # 2 
8644 1 1 -1.179400 36.090000 38.410999 37.512001 # 1 
8645 1 2 0.589700 35.304001 38.894001 37.767998 # 2 
8646 1 2 0.589700 36.076000 38.419003 36.555000 # 2 
8647 1 1 -1.179400 36.090000 38.410999 46.697998 # 1 
8648 1 2 0.589700 35.308002 38.889999 46.424999 # 2 
8649 1 2 0.589700 36.087997 37.620998 46.157997 # 2 
8650 1 1 -1.179400 36.090000 45.798996 37.512001 # 1 
8651 1 2 0.589700 36.872002 45.320000 37.785000 # 2 
8652 1 2 0.589700 36.091999 46.588997 38.052002 # 2 
8653 1 1 -1.179400 36.090000 45.798996 46.697998 # 1 
8654 1 2 0.589700 36.875999 45.316002 46.441998 # 2 
8655 1 2 0.589700 36.104000 45.790001 47.654999 # 2 
8656 1 1 -1.179400 42.104996 45.114002 36.090000 # 1 
8657 1 2 0.589700 42.133999 45.639999 36.889000 # 2 
8658 1 2 0.589700 42.903999 44.587997 36.118999 # 2 
8659 1 1 -1.179400 42.104996 37.512001 38.410999 # 1 
8660 1 2 0.589700 41.322998 37.785000 38.889999 # 2 
8661 1 2 0.589700 42.103001 38.052002 37.620998 # 2 
8662 1 1 -1.179400 42.104996 46.697998 38.410999 # 1 
8663 1 2 0.589700 41.319000 46.441998 38.894001 # 2 
8664 1 2 0.589700 42.090996 47.654999 38.419003 # 2 
8665 1 1 -1.179400 42.104996 37.512001 45.798996 # 1 
8666 1 2 0.589700 42.891003 37.767998 45.316002 # 2 
8667 1 2 0.589700 42.118996 36.555000 45.790001 # 2 
8668 1 1 -1.179400 42.104996 46.697998 45.798996 # 1 
8669 1 2 0.589700 42.107002 46.157997 46.588997 # 2 
8670 1 2 0.589700 42.887001 46.424999 45.320000 # 2 
8671 1 1 -1.179400 39.785000 40.682999 36.090000 # 1 
8672 1 2 0.589700 39.285999 40.410999 36.860001 # 2 
8673 1 2 0.589700 39.767002 41.639000 36.118000 # 2 
8674 1 1 -1.179400 38.410000 36.090000 43.526997 # 1 
8675 1 2 0.589700 38.909000 36.860001 43.799000 # 2 
8676 1 2 0.589700 38.427998 36.118000 42.570999 # 2 
8677 1 1 -1.179400 38.353001 39.803001 38.299999 # 1 
8678 1 2 0.589700 38.870998 39.215000 38.848999 # 2 
8679 1 2 0.589700 37.586998 39.285999 38.050999 # 2 
8680 1 1 -1.179400 38.353001 39.803001 45.910000 # 1 
8681 1 2 0.589700 38.811001 40.084000 46.702999 # 2 
8682 1 2 0.589700 37.584999 39.330002 46.231998 # 2 
8683 1 1 -1.179400 38.353001 44.407001 38.299999 # 1 
8684 1 2 0.589700 38.084999 43.621002 38.776001 # 2 
8685 1 2 0.589700 38.842999 44.076000 37.546001 # 2 
8686 1 1 -1.179400 38.353001 44.407001 45.910000 # 1 
8687 1 2 0.589700 38.896999 44.934002 45.324997 # 2 
8688 1 2 0.589700 38.094002 43.653000 45.382000 # 2 
8689 1 1 -1.179400 39.841999 38.299999 39.803001 # 1 
8690 1 2 0.589700 40.109001 38.776001 40.588997 # 2 
8691 1 2 0.589700 39.352001 37.546001 40.134003 # 2 
8692 1 1 -1.179400 39.841999 45.910000 39.803001 # 1 
8693 1 2 0.589700 40.100998 45.382000 40.556999 # 2 
8694 1 2 0.589700 39.298000 45.324997 39.276001 # 2 
8695 1 1 -1.179400 39.841999 38.299999 44.407001 # 1 
8696 1 2 0.589700 40.608002 38.050999 44.924004 # 2 
8697 1 2 0.589700 39.324001 38.848999 44.994999 # 2 
8698 1 1 -1.179400 39.841999 45.910000 44.407001 # 1 
8699 1 2 0.589700 40.610001 46.231998 44.879997 # 2 
8700 1 2 0.589700 39.383999 46.702999 44.125999 # 2 
8701 1 1 -1.179400 44.425003 40.682999 36.090000 # 1 
8702 1 2 0.589700 44.920002 40.380997 36.852001 # 2 
8703 1 2 0.589700 43.635002 40.142998 36.087997 # 2 
8704 1 1 -1.179400 45.799999 36.090000 43.526997 # 1 
8705 1 2 0.589700 45.305000 36.852001 43.828999 # 2 
8706 1 2 0.589700 46.590000 36.087997 44.067001 # 2 
8707 1 1 -1.179400 45.857002 39.803001 38.299999 # 1 
8708 1 2 0.589700 46.115997 40.556999 38.828003 # 2 
8709 1 2 0.589700 45.313000 39.276001 38.884998 # 2 
8710 1 1 -1.179400 45.857002 39.803001 45.910000 # 1 
8711 1 2 0.589700 45.367004 40.134003 46.664001 # 2 
8712 1 2 0.589700 46.125000 40.588997 45.433998 # 2 
8713 1 1 -1.179400 45.857002 44.407001 38.299999 # 1 
8714 1 2 0.589700 46.625000 44.879997 37.978001 # 2 
8715 1 2 0.589700 45.398998 44.125999 37.507000 # 2 
8716 1 1 -1.179400 45.857002 44.407001 45.910000 # 1 
8717 1 2 0.589700 46.623001 44.924004 46.159000 # 2 
8718 1 2 0.589700 45.338001 44.994999 45.361000 # 2 
8719 1 1 -1.179400 44.368000 38.299999 39.803001 # 1 
8720 1 2 0.589700 44.826004 37.507000 40.084000 # 2 
8721 1 2 0.589700 43.600002 37.978001 39.330002 # 2 
8722 1 1 -1.179400 44.368000 45.910000 39.803001 # 1 
8723 1 2 0.589700 43.601997 46.159000 39.285999 # 2 
8724 1 2 0.589700 44.887001 45.361000 39.215000 # 2 
8725 1 1 -1.179400 44.368000 38.299999 44.407001 # 1 
8726 1 2 0.589700 44.109001 38.828003 43.653000 # 2 
8727 1 2 0.589700 44.911999 38.884998 44.934002 # 2 
8728 1 1 -1.179400 44.368000 45.910000 44.407001 # 1 
8729 1 2 0.589700 44.857998 46.664001 44.076000 # 2 
8730 1 2 0.589700 44.100998 45.433998 43.621002 # 2 
8731 1 1 -1.179400 39.096001 42.104996 42.104996 # 1 
8732 1 2 0.589700 39.621998 42.903999 42.076000 # 2 
8733 1 2 0.589700 38.570000 42.133999 41.306000 # 2 
8734 1 1 -1.179400 45.114002 42.104996 42.104996 # 1 
8735 1 2 0.589700 45.639999 42.076000 42.903999 # 2 
8736 1 2 0.589700 44.587997 41.306000 42.133999 # 2 
8737 1 1 -1.179400 37.512001 42.104996 44.426003 # 1 
8738 1 2 0.589700 38.054001 42.099998 43.637001 # 2 
8739 1 2 0.589700 37.797001 41.334999 44.917999 # 2 
8740 1 1 -1.179400 46.697998 42.104996 44.426003 # 1 
8741 1 2 0.589700 46.437000 42.878998 44.924999 # 2 
8742 1 2 0.589700 47.654999 42.122997 44.436996 # 2 
8743 1 1 -1.179400 37.512001 42.104996 39.784000 # 1 
8744 1 2 0.589700 36.555000 42.087002 39.772999 # 2 
8745 1 2 0.589700 37.772999 41.331001 39.285000 # 2 
8746 1 1 -1.179400 46.697998 42.104996 39.784000 # 1 
8747 1 2 0.589700 46.156002 42.110001 40.573002 # 2 
8748 1 2 0.589700 46.413002 42.875000 39.292000 # 2 
8749 1 1 -1.179400 40.682999 39.785000 42.104996 # 1 
8750 1 2 0.589700 40.139999 40.573002 42.110001 # 2 
8751 1 2 0.589700 40.398003 39.292999 42.875000 # 2 
8752 1 1 -1.179400 43.526997 39.785000 42.104996 # 1 
8753 1 2 0.589700 42.570000 39.772999 42.087002 # 2 
8754 1 2 0.589700 43.787998 39.285000 41.331001 # 2 
8755 1 1 -1.179400 40.682999 44.425003 42.104996 # 1 
8756 1 2 0.589700 40.422001 44.924999 42.878998 # 2 
8757 1 2 0.589700 41.639999 44.436996 42.122997 # 2 
8758 1 1 -1.179400 43.526997 44.425003 42.104996 # 1 
8759 1 2 0.589700 44.070000 43.637001 42.099998 # 2 
8760 1 2 0.589700 43.811996 44.917000 41.334999 # 2 
8761 1 1 -1.179400 30.074999 27.066000 48.119999 # 1 
8762 1 2 0.589700 30.046001 26.540001 47.320999 # 2 
8763 1 2 0.589700 29.275999 27.592001 48.091003 # 2 
8764 1 1 -1.179400 27.755001 31.497000 48.119999 # 1 
8765 1 2 0.589700 28.545000 32.037003 48.122002 # 2 
8766 1 2 0.589700 27.260000 31.799000 47.357998 # 2 
8767 1 1 -1.179400 32.395000 31.497000 48.119999 # 1 
8768 1 2 0.589700 32.893997 31.768999 47.350002 # 2 
8769 1 2 0.589700 32.412998 30.541000 48.091999 # 2 
8770 1 1 -1.179400 48.119999 24.059999 39.096001 # 1 
8771 1 2 0.589700 47.320999 24.089001 39.621998 # 2 
8772 1 2 0.589700 48.091003 24.858999 38.570000 # 2 
8773 1 1 -1.179400 48.119999 26.380999 37.512001 # 1 
8774 1 2 0.589700 47.334000 26.863998 37.767998 # 2 
8775 1 2 0.589700 48.105999 26.389000 36.555000 # 2 
8776 1 1 -1.179400 48.119999 26.380999 46.697998 # 1 
8777 1 2 0.589700 47.337997 26.860001 46.424999 # 2 
8778 1 2 0.589700 48.118000 25.591000 46.157997 # 2 
8779 1 1 -1.179400 42.104996 27.066000 48.119999 # 1 
8780 1 2 0.589700 42.076000 26.540001 47.320999 # 2 
8781 1 2 0.589700 41.306000 27.592001 48.091003 # 2 
8782 1 1 -1.179400 39.785000 31.497000 48.119999 # 1 
8783 1 2 0.589700 40.574997 32.037003 48.122002 # 2 
8784 1 2 0.589700 39.290001 31.799000 47.357998 # 2 
8785 1 1 -1.179400 44.425003 31.497000 48.119999 # 1 
8786 1 2 0.589700 44.924004 31.768999 47.350002 # 2 
8787 1 2 0.589700 44.443001 30.541000 48.091999 # 2 
8788 1 1 -1.179400 24.059999 48.119999 45.114002 # 1 
8789 1 2 0.589700 24.089001 47.320999 45.639999 # 2 
8790 1 2 0.589700 24.858999 48.091003 44.587997 # 2 
8791 1 1 -1.179400 26.380001 48.119999 40.682999 # 1 
8792 1 2 0.589700 25.590000 48.122002 40.142998 # 2 
8793 1 2 0.589700 26.875000 47.357998 40.380997 # 2 
8794 1 1 -1.179400 33.770000 48.119999 40.682999 # 1 
8795 1 2 0.589700 33.271000 47.350002 40.410999 # 2 
8796 1 2 0.589700 33.751999 48.091999 41.639000 # 2 
8797 1 1 -1.179400 30.074999 39.096001 48.119999 # 1 
8798 1 2 0.589700 30.046001 38.570000 47.320999 # 2 
8799 1 2 0.589700 29.275999 39.621998 48.091003 # 2 
8800 1 1 -1.179400 27.755001 43.526997 48.119999 # 1 
8801 1 2 0.589700 28.545000 44.067001 48.122002 # 2 
8802 1 2 0.589700 27.260000 43.828999 47.357998 # 2 
8803 1 1 -1.179400 32.395000 43.526997 48.119999 # 1 
8804 1 2 0.589700 32.893997 43.799000 47.350002 # 2 
8805 1 2 0.589700 32.412998 42.570999 48.091999 # 2 
8806 1 1 -1.179400 48.119999 36.090000 39.096001 # 1 
8807 1 2 0.589700 47.320999 36.118999 39.621998 # 2 
8808 1 2 0.589700 48.091003 36.889000 38.570000 # 2 
8809 1 1 -1.179400 48.119999 38.410999 37.512001 # 1 
8810 1 2 0.589700 47.334000 38.894001 37.767998 # 2 
8811 1 2 0.589700 48.105999 38.419003 36.555000 # 2 
8812 1 1 -1.179400 48.119999 38.410999 46.697998 # 1 
8813 1 2 0.589700 47.337997 38.889999 46.424999 # 2 
8814 1 2 0.589700 48.118000 37.620998 46.157997 # 2 
8815 1 1 -1.179400 36.090000 48.119999 45.114002 # 1 
8816 1 2 0.589700 36.118999 47.320999 45.639999 # 2 
8817 1 2 0.589700 36.889000 48.091003 44.587997 # 2 
8818 1 1 -1.179400 38.410000 48.119999 40.682999 # 1 
8819 1 2 0.589700 37.620003 48.122002 40.142998 # 2 
8820 1 2 0.589700 38.904999 47.357998 40.380997 # 2 
8821 1 1 -1.179400 45.799999 48.119999 40.682999 # 1 
8822 1 2 0.589700 45.300999 47.350002 40.410999 # 2 
8823 1 2 0.589700 45.781998 48.091999 41.639000 # 2 
8824 1 1 -1.179400 42.104996 39.096001 48.119999 # 1 
8825 1 2 0.589700 42.076000 38.570000 47.320999 # 2 
8826 1 2 0.589700 41.306000 39.621998 48.091003 # 2 
8827 1 1 -1.179400 39.785000 43.526997 48.119999 # 1 
8828 1 2 0.589700 40.574997 44.067001 48.122002 # 2 
8829 1 2 0.589700 39.290001 43.828999 47.357998 # 2 
8830 1 1 -1.179400 44.425003 43.526997 48.119999 # 1 
8831 1 2 0.589700 44.924004 43.799000 47.350002 # 2 
8832 1 2 0.589700 44.443001 42.570999 48.091999 # 2 
8833 1 4 0.651200 12.030000 6.015000 0.000000 # 4 
8834 1 3 -0.325600 11.356000 6.999001 0.087000 # 3 
8835 1 3 -0.325600 12.704000 5.032000 -0.087000 # 3 
8836 1 4 0.651200 18.045000 0.000000 6.015000 # 4 
8837 1 3 -0.325600 17.371000 0.984000 6.102000 # 3 
8838 1 3 -0.325600 18.719000 -0.983000 5.928000 # 3 
8839 1 4 0.651200 15.038000 0.000000 0.000000 # 4 
8840 1 3 -0.325600 14.364000 0.984000 0.087000 # 3 
8841 1 3 -0.325600 15.712000 -0.983000 -0.087000 # 3 
8842 1 4 0.651200 21.052999 0.000000 0.000000 # 4 
8843 1 3 -0.325600 20.379000 0.984000 0.087000 # 3 
8844 1 3 -0.325600 21.726999 -0.983000 -0.087000 # 3 
8845 1 4 0.651200 12.030000 2.992000 6.015000 # 4 
8846 1 3 -0.325600 12.704000 2.009000 5.928000 # 3 
8847 1 3 -0.325600 11.356000 3.976000 6.102000 # 3 
8848 1 4 0.651200 12.030000 9.038000 6.015000 # 4 
8849 1 3 -0.325600 11.356000 10.022000 6.102000 # 3 
8850 1 3 -0.325600 12.704000 8.055000 5.928000 # 3 
8851 1 4 0.651200 18.045000 6.015000 2.992000 # 4 
8852 1 3 -0.325600 17.371000 6.999001 3.079000 # 3 
8853 1 3 -0.325600 18.719000 5.032000 2.905000 # 3 
8854 1 4 0.651200 18.045000 6.015000 9.038000 # 4 
8855 1 3 -0.325600 17.371000 6.999001 9.125000 # 3 
8856 1 3 -0.325600 18.719000 5.032000 8.951000 # 3 
8857 1 4 0.651200 0.000000 18.045000 0.000000 # 4 
8858 1 3 -0.325600 -0.674000 19.028999 0.087000 # 3 
8859 1 3 -0.325600 0.674000 17.062000 -0.087000 # 3 
8860 1 4 0.651200 6.015000 12.030000 6.015000 # 4 
8861 1 3 -0.325600 5.341000 13.014000 6.102000 # 3 
8862 1 3 -0.325600 6.689000 11.047000 5.928000 # 3 
8863 1 4 0.651200 3.008000 12.030000 0.000000 # 4 
8864 1 3 -0.325600 2.334000 13.014000 0.087000 # 3 
8865 1 3 -0.325600 3.682000 11.047000 -0.087000 # 3 
8866 1 4 0.651200 9.023000 12.030000 0.000000 # 4 
8867 1 3 -0.325600 8.349000 13.014000 0.087000 # 3 
8868 1 3 -0.325600 9.697000 11.047000 -0.087000 # 3 
8869 1 4 0.651200 0.000000 15.022000 6.015000 # 4 
8870 1 3 -0.325600 0.674000 14.039001 5.928000 # 3 
8871 1 3 -0.325600 -0.674000 16.006001 6.102000 # 3 
8872 1 4 0.651200 0.000000 21.068001 6.015000 # 4 
8873 1 3 -0.325600 -0.674000 22.052000 6.102000 # 3 
8874 1 3 -0.325600 0.674000 20.085001 5.928000 # 3 
8875 1 4 0.651200 6.015000 18.045000 2.992000 # 4 
8876 1 3 -0.325600 5.341000 19.028999 3.079000 # 3 
8877 1 3 -0.325600 6.689000 17.062000 2.905000 # 3 
8878 1 4 0.651200 6.015000 18.045000 9.038000 # 4 
8879 1 3 -0.325600 5.341000 19.028999 9.125000 # 3 
8880 1 3 -0.325600 6.689000 17.062000 8.951000 # 3 
8881 1 4 0.651200 0.000000 6.015000 0.000000 # 4 
8882 1 3 -0.325600 -0.674000 6.999001 0.087000 # 3 
8883 1 3 -0.325600 0.674000 5.032000 -0.087000 # 3 
8884 1 4 0.651200 6.015000 0.000000 6.015000 # 4 
8885 1 3 -0.325600 5.341000 0.984000 6.102000 # 3 
8886 1 3 -0.325600 6.689000 -0.983000 5.928000 # 3 
8887 1 4 0.651200 3.008000 0.000000 0.000000 # 4 
8888 1 3 -0.325600 2.334000 0.984000 0.087000 # 3 
8889 1 3 -0.325600 3.682000 -0.983000 -0.087000 # 3 
8890 1 4 0.651200 9.023000 0.000000 0.000000 # 4 
8891 1 3 -0.325600 8.349000 0.984000 0.087000 # 3 
8892 1 3 -0.325600 9.697000 -0.983000 -0.087000 # 3 
8893 1 4 0.651200 0.000000 2.992000 6.015000 # 4 
8894 1 3 -0.325600 0.674000 2.009000 5.928000 # 3 
8895 1 3 -0.325600 -0.674000 3.976000 6.102000 # 3 
8896 1 4 0.651200 0.000000 9.038000 6.015000 # 4 
8897 1 3 -0.325600 -0.674000 10.022000 6.102000 # 3 
8898 1 3 -0.325600 0.674000 8.055000 5.928000 # 3 
8899 1 4 0.651200 6.015000 6.015000 2.992000 # 4 
8900 1 3 -0.325600 5.341000 6.999001 3.079000 # 3 
8901 1 3 -0.325600 6.689000 5.032000 2.905000 # 3 
8902 1 4 0.651200 6.015000 6.015000 9.038000 # 4 
8903 1 3 -0.325600 5.341000 6.999001 9.125000 # 3 
8904 1 3 -0.325600 6.689000 5.032000 8.951000 # 3 
8905 1 4 0.651200 0.000000 6.015000 12.030000 # 4 
8906 1 3 -0.325600 -0.674000 6.999001 12.117000 # 3 
8907 1 3 -0.325600 0.674000 5.032000 11.943001 # 3 
8908 1 4 0.651200 6.015000 0.000000 18.045000 # 4 
8909 1 3 -0.325600 5.341000 0.984000 18.132000 # 3 
8910 1 3 -0.325600 6.689000 -0.983000 17.958000 # 3 
8911 1 4 0.651200 3.008000 0.000000 12.030000 # 4 
8912 1 3 -0.325600 2.334000 0.984000 12.117000 # 3 
8913 1 3 -0.325600 3.682000 -0.983000 11.943001 # 3 
8914 1 4 0.651200 9.023000 0.000000 12.030000 # 4 
8915 1 3 -0.325600 8.349000 0.984000 12.117000 # 3 
8916 1 3 -0.325600 9.697000 -0.983000 11.943001 # 3 
8917 1 4 0.651200 0.000000 2.992000 18.045000 # 4 
8918 1 3 -0.325600 0.674000 2.009000 17.958000 # 3 
8919 1 3 -0.325600 -0.674000 3.976000 18.132000 # 3 
8920 1 4 0.651200 0.000000 9.038000 18.045000 # 4 
8921 1 3 -0.325600 -0.674000 10.022000 18.132000 # 3 
8922 1 3 -0.325600 0.674000 8.055000 17.958000 # 3 
8923 1 4 0.651200 6.015000 6.015000 15.022000 # 4 
8924 1 3 -0.325600 5.341000 6.999001 15.109000 # 3 
8925 1 3 -0.325600 6.689000 5.032000 14.934999 # 3 
8926 1 4 0.651200 6.015000 6.015000 21.068001 # 4 
8927 1 3 -0.325600 5.341000 6.999001 21.154999 # 3 
8928 1 3 -0.325600 6.689000 5.032000 20.980999 # 3 
8929 1 4 0.651200 12.030000 18.045000 0.000000 # 4 
8930 1 3 -0.325600 11.356000 19.028999 0.087000 # 3 
8931 1 3 -0.325600 12.704000 17.062000 -0.087000 # 3 
8932 1 4 0.651200 18.045000 12.030000 6.015000 # 4 
8933 1 3 -0.325600 17.371000 13.014000 6.102000 # 3 
8934 1 3 -0.325600 18.719000 11.047000 5.928000 # 3 
8935 1 4 0.651200 15.038000 12.030000 0.000000 # 4 
8936 1 3 -0.325600 14.364000 13.014000 0.087000 # 3 
8937 1 3 -0.325600 15.712000 11.047000 -0.087000 # 3 
8938 1 4 0.651200 21.052999 12.030000 0.000000 # 4 
8939 1 3 -0.325600 20.379000 13.014000 0.087000 # 3 
8940 1 3 -0.325600 21.726999 11.047000 -0.087000 # 3 
8941 1 4 0.651200 12.030000 15.022000 6.015000 # 4 
8942 1 3 -0.325600 12.704000 14.039001 5.928000 # 3 
8943 1 3 -0.325600 11.356000 16.006001 6.102000 # 3 
8944 1 4 0.651200 12.030000 21.068001 6.015000 # 4 
8945 1 3 -0.325600 11.356000 22.052000 6.102000 # 3 
8946 1 3 -0.325600 12.704000 20.085001 5.928000 # 3 
8947 1 4 0.651200 18.045000 18.045000 2.992000 # 4 
8948 1 3 -0.325600 17.371000 19.028999 3.079000 # 3 
8949 1 3 -0.325600 18.719000 17.062000 2.905000 # 3 
8950 1 4 0.651200 18.045000 18.045000 9.038000 # 4 
8951 1 3 -0.325600 17.371000 19.028999 9.125000 # 3 
8952 1 3 -0.325600 18.719000 17.062000 8.951000 # 3 
8953 1 4 0.651200 12.030000 6.015000 12.030000 # 4 
8954 1 3 -0.325600 11.356000 6.999001 12.117000 # 3 
8955 1 3 -0.325600 12.704000 5.032000 11.943001 # 3 
8956 1 4 0.651200 18.045000 0.000000 18.045000 # 4 
8957 1 3 -0.325600 17.371000 0.984000 18.132000 # 3 
8958 1 3 -0.325600 18.719000 -0.983000 17.958000 # 3 
8959 1 4 0.651200 15.038000 0.000000 12.030000 # 4 
8960 1 3 -0.325600 14.364000 0.984000 12.117000 # 3 
8961 1 3 -0.325600 15.712000 -0.983000 11.943001 # 3 
8962 1 4 0.651200 21.052999 0.000000 12.030000 # 4 
8963 1 3 -0.325600 20.379000 0.984000 12.117000 # 3 
8964 1 3 -0.325600 21.726999 -0.983000 11.943001 # 3 
8965 1 4 0.651200 12.030000 2.992000 18.045000 # 4 
8966 1 3 -0.325600 12.704000 2.009000 17.958000 # 3 
8967 1 3 -0.325600 11.356000 3.976000 18.132000 # 3 
8968 1 4 0.651200 12.030000 9.038000 18.045000 # 4 
8969 1 3 -0.325600 11.356000 10.022000 18.132000 # 3 
8970 1 3 -0.325600 12.704000 8.055000 17.958000 # 3 
8971 1 4 0.651200 18.045000 6.015000 15.022000 # 4 
8972 1 3 -0.325600 17.371000 6.999001 15.109000 # 3 
8973 1 3 -0.325600 18.719000 5.032000 14.934999 # 3 
8974 1 4 0.651200 18.045000 6.015000 21.068001 # 4 
8975 1 3 -0.325600 17.371000 6.999001 21.154999 # 3 
8976 1 3 -0.325600 18.719000 5.032000 20.980999 # 3 
8977 1 4 0.651200 0.000000 18.045000 12.030000 # 4 
8978 1 3 -0.325600 -0.674000 19.028999 12.117000 # 3 
8979 1 3 -0.325600 0.674000 17.062000 11.943001 # 3 
8980 1 4 0.651200 6.015000 12.030000 18.045000 # 4 
8981 1 3 -0.325600 5.341000 13.014000 18.132000 # 3 
8982 1 3 -0.325600 6.689000 11.047000 17.958000 # 3 
8983 1 4 0.651200 3.008000 12.030000 12.030000 # 4 
8984 1 3 -0.325600 2.334000 13.014000 12.117000 # 3 
8985 1 3 -0.325600 3.682000 11.047000 11.943001 # 3 
8986 1 4 0.651200 9.023000 12.030000 12.030000 # 4 
8987 1 3 -0.325600 8.349000 13.014000 12.117000 # 3 
8988 1 3 -0.325600 9.697000 11.047000 11.943001 # 3 
8989 1 4 0.651200 0.000000 15.022000 18.045000 # 4 
8990 1 3 -0.325600 0.674000 14.039001 17.958000 # 3 
8991 1 3 -0.325600 -0.674000 16.006001 18.132000 # 3 
8992 1 4 0.651200 0.000000 21.068001 18.045000 # 4 
8993 1 3 -0.325600 -0.674000 22.052000 18.132000 # 3 
8994 1 3 -0.325600 0.674000 20.085001 17.958000 # 3 
8995 1 4 0.651200 6.015000 18.045000 15.022000 # 4 
8996 1 3 -0.325600 5.341000 19.028999 15.109000 # 3 
8997 1 3 -0.325600 6.689000 17.062000 14.934999 # 3 
8998 1 4 0.651200 6.015000 18.045000 21.068001 # 4 
8999 1 3 -0.325600 5.341000 19.028999 21.154999 # 3 
9000 1 3 -0.325600 6.689000 17.062000 20.980999 # 3 
9001 1 4 0.651200 12.030000 18.045000 12.030000 # 4 
9002 1 3 -0.325600 11.356000 19.028999 12.117000 # 3 
9003 1 3 -0.325600 12.704000 17.062000 11.943001 # 3 
9004 1 4 0.651200 18.045000 12.030000 18.045000 # 4 
9005 1 3 -0.325600 17.371000 13.014000 18.132000 # 3 
9006 1 3 -0.325600 18.719000 11.047000 17.958000 # 3 
9007 1 4 0.651200 15.038000 12.030000 12.030000 # 4 
9008 1 3 -0.325600 14.364000 13.014000 12.117000 # 3 
9009 1 3 -0.325600 15.712000 11.047000 11.943001 # 3 
9010 1 4 0.651200 21.052999 12.030000 12.030000 # 4 
9011 1 3 -0.325600 20.379000 13.014000 12.117000 # 3 
9012 1 3 -0.325600 21.726999 11.047000 11.943001 # 3 
9013 1 4 0.651200 12.030000 15.022000 18.045000 # 4 
9014 1 3 -0.325600 12.704000 14.039001 17.958000 # 3 
9015 1 3 -0.325600 11.356000 16.006001 18.132000 # 3 
9016 1 4 0.651200 12.030000 21.068001 18.045000 # 4 
9017 1 3 -0.325600 11.356000 22.052000 18.132000 # 3 
9018 1 3 -0.325600 12.704000 20.085001 17.958000 # 3 
9019 1 4 0.651200 18.045000 18.045000 15.022000 # 4 
9020 1 3 -0.325600 17.371000 19.028999 15.109000 # 3 
9021 1 3 -0.325600 18.719000 17.062000 14.934999 # 3 
9022 1 4 0.651200 18.045000 18.045000 21.068001 # 4 
9023 1 3 -0.325600 17.371000 19.028999 21.154999 # 3 
9024 1 3 -0.325600 18.719000 17.062000 20.980999 # 3 
9025 1 4 0.651200 36.090000 6.015000 0.000000 # 4 
9026 1 3 -0.325600 35.416000 6.999001 0.087000 # 3 
9027 1 3 -0.325600 36.764000 5.032000 -0.087000 # 3 
9028 1 4 0.651200 42.104996 0.000000 6.015000 # 4 
9029 1 3 -0.325600 41.431000 0.984000 6.102000 # 3 
9030 1 3 -0.325600 42.779003 -0.983000 5.928000 # 3 
9031 1 4 0.651200 39.098000 0.000000 0.000000 # 4 
9032 1 3 -0.325600 38.424000 0.984000 0.087000 # 3 
9033 1 3 -0.325600 39.771999 -0.983000 -0.087000 # 3 
9034 1 4 0.651200 45.112999 0.000000 0.000000 # 4 
9035 1 3 -0.325600 44.439003 0.984000 0.087000 # 3 
9036 1 3 -0.325600 45.787003 -0.983000 -0.087000 # 3 
9037 1 4 0.651200 36.090000 2.992000 6.015000 # 4 
9038 1 3 -0.325600 36.764000 2.009000 5.928000 # 3 
9039 1 3 -0.325600 35.416000 3.976000 6.102000 # 3 
9040 1 4 0.651200 36.090000 9.038000 6.015000 # 4 
9041 1 3 -0.325600 35.416000 10.022000 6.102000 # 3 
9042 1 3 -0.325600 36.764000 8.055000 5.928000 # 3 
9043 1 4 0.651200 42.104996 6.015000 2.992000 # 4 
9044 1 3 -0.325600 41.431000 6.999001 3.079000 # 3 
9045 1 3 -0.325600 42.779003 5.032000 2.905000 # 3 
9046 1 4 0.651200 42.104996 6.015000 9.038000 # 4 
9047 1 3 -0.325600 41.431000 6.999001 9.125000 # 3 
9048 1 3 -0.325600 42.779003 5.032000 8.951000 # 3 
9049 1 4 0.651200 24.059999 18.045000 0.000000 # 4 
9050 1 3 -0.325600 23.386000 19.028999 0.087000 # 3 
9051 1 3 -0.325600 24.734001 17.062000 -0.087000 # 3 
9052 1 4 0.651200 30.074999 12.030000 6.015000 # 4 
9053 1 3 -0.325600 29.400999 13.014000 6.102000 # 3 
9054 1 3 -0.325600 30.748999 11.047000 5.928000 # 3 
9055 1 4 0.651200 27.068001 12.030000 0.000000 # 4 
9056 1 3 -0.325600 26.394001 13.014000 0.087000 # 3 
9057 1 3 -0.325600 27.742001 11.047000 -0.087000 # 3 
9058 1 4 0.651200 33.083000 12.030000 0.000000 # 4 
9059 1 3 -0.325600 32.409000 13.014000 0.087000 # 3 
9060 1 3 -0.325600 33.757000 11.047000 -0.087000 # 3 
9061 1 4 0.651200 24.059999 15.022000 6.015000 # 4 
9062 1 3 -0.325600 24.734001 14.039001 5.928000 # 3 
9063 1 3 -0.325600 23.386000 16.006001 6.102000 # 3 
9064 1 4 0.651200 24.059999 21.068001 6.015000 # 4 
9065 1 3 -0.325600 23.386000 22.052000 6.102000 # 3 
9066 1 3 -0.325600 24.734001 20.085001 5.928000 # 3 
9067 1 4 0.651200 30.074999 18.045000 2.992000 # 4 
9068 1 3 -0.325600 29.400999 19.028999 3.079000 # 3 
9069 1 3 -0.325600 30.748999 17.062000 2.905000 # 3 
9070 1 4 0.651200 30.074999 18.045000 9.038000 # 4 
9071 1 3 -0.325600 29.400999 19.028999 9.125000 # 3 
9072 1 3 -0.325600 30.748999 17.062000 8.951000 # 3 
9073 1 4 0.651200 24.059999 6.015000 0.000000 # 4 
9074 1 3 -0.325600 23.386000 6.999001 0.087000 # 3 
9075 1 3 -0.325600 24.734001 5.032000 -0.087000 # 3 
9076 1 4 0.651200 30.074999 0.000000 6.015000 # 4 
9077 1 3 -0.325600 29.400999 0.984000 6.102000 # 3 
9078 1 3 -0.325600 30.748999 -0.983000 5.928000 # 3 
9079 1 4 0.651200 27.068001 0.000000 0.000000 # 4 
9080 1 3 -0.325600 26.394001 0.984000 0.087000 # 3 
9081 1 3 -0.325600 27.742001 -0.983000 -0.087000 # 3 
9082 1 4 0.651200 33.083000 0.000000 0.000000 # 4 
9083 1 3 -0.325600 32.409000 0.984000 0.087000 # 3 
9084 1 3 -0.325600 33.757000 -0.983000 -0.087000 # 3 
9085 1 4 0.651200 24.059999 2.992000 6.015000 # 4 
9086 1 3 -0.325600 24.734001 2.009000 5.928000 # 3 
9087 1 3 -0.325600 23.386000 3.976000 6.102000 # 3 
9088 1 4 0.651200 24.059999 9.038000 6.015000 # 4 
9089 1 3 -0.325600 23.386000 10.022000 6.102000 # 3 
9090 1 3 -0.325600 24.734001 8.055000 5.928000 # 3 
9091 1 4 0.651200 30.074999 6.015000 2.992000 # 4 
9092 1 3 -0.325600 29.400999 6.999001 3.079000 # 3 
9093 1 3 -0.325600 30.748999 5.032000 2.905000 # 3 
9094 1 4 0.651200 30.074999 6.015000 9.038000 # 4 
9095 1 3 -0.325600 29.400999 6.999001 9.125000 # 3 
9096 1 3 -0.325600 30.748999 5.032000 8.951000 # 3 
9097 1 4 0.651200 24.059999 6.015000 12.030000 # 4 
9098 1 3 -0.325600 23.386000 6.999001 12.117000 # 3 
9099 1 3 -0.325600 24.734001 5.032000 11.943001 # 3 
9100 1 4 0.651200 30.074999 0.000000 18.045000 # 4 
9101 1 3 -0.325600 29.400999 0.984000 18.132000 # 3 
9102 1 3 -0.325600 30.748999 -0.983000 17.958000 # 3 
9103 1 4 0.651200 27.068001 0.000000 12.030000 # 4 
9104 1 3 -0.325600 26.394001 0.984000 12.117000 # 3 
9105 1 3 -0.325600 27.742001 -0.983000 11.943001 # 3 
9106 1 4 0.651200 33.083000 0.000000 12.030000 # 4 
9107 1 3 -0.325600 32.409000 0.984000 12.117000 # 3 
9108 1 3 -0.325600 33.757000 -0.983000 11.943001 # 3 
9109 1 4 0.651200 24.059999 2.992000 18.045000 # 4 
9110 1 3 -0.325600 24.734001 2.009000 17.958000 # 3 
9111 1 3 -0.325600 23.386000 3.976000 18.132000 # 3 
9112 1 4 0.651200 24.059999 9.038000 18.045000 # 4 
9113 1 3 -0.325600 23.386000 10.022000 18.132000 # 3 
9114 1 3 -0.325600 24.734001 8.055000 17.958000 # 3 
9115 1 4 0.651200 30.074999 6.015000 15.022000 # 4 
9116 1 3 -0.325600 29.400999 6.999001 15.109000 # 3 
9117 1 3 -0.325600 30.748999 5.032000 14.934999 # 3 
9118 1 4 0.651200 30.074999 6.015000 21.068001 # 4 
9119 1 3 -0.325600 29.400999 6.999001 21.154999 # 3 
9120 1 3 -0.325600 30.748999 5.032000 20.980999 # 3 
9121 1 4 0.651200 36.090000 18.045000 0.000000 # 4 
9122 1 3 -0.325600 35.416000 19.028999 0.087000 # 3 
9123 1 3 -0.325600 36.764000 17.062000 -0.087000 # 3 
9124 1 4 0.651200 42.104996 12.030000 6.015000 # 4 
9125 1 3 -0.325600 41.431000 13.014000 6.102000 # 3 
9126 1 3 -0.325600 42.779003 11.047000 5.928000 # 3 
9127 1 4 0.651200 39.098000 12.030000 0.000000 # 4 
9128 1 3 -0.325600 38.424000 13.014000 0.087000 # 3 
9129 1 3 -0.325600 39.771999 11.047000 -0.087000 # 3 
9130 1 4 0.651200 45.112999 12.030000 0.000000 # 4 
9131 1 3 -0.325600 44.439003 13.014000 0.087000 # 3 
9132 1 3 -0.325600 45.787003 11.047000 -0.087000 # 3 
9133 1 4 0.651200 36.090000 15.022000 6.015000 # 4 
9134 1 3 -0.325600 36.764000 14.039001 5.928000 # 3 
9135 1 3 -0.325600 35.416000 16.006001 6.102000 # 3 
9136 1 4 0.651200 36.090000 21.068001 6.015000 # 4 
9137 1 3 -0.325600 35.416000 22.052000 6.102000 # 3 
9138 1 3 -0.325600 36.764000 20.085001 5.928000 # 3 
9139 1 4 0.651200 42.104996 18.045000 2.992000 # 4 
9140 1 3 -0.325600 41.431000 19.028999 3.079000 # 3 
9141 1 3 -0.325600 42.779003 17.062000 2.905000 # 3 
9142 1 4 0.651200 42.104996 18.045000 9.038000 # 4 
9143 1 3 -0.325600 41.431000 19.028999 9.125000 # 3 
9144 1 3 -0.325600 42.779003 17.062000 8.951000 # 3 
9145 1 4 0.651200 36.090000 6.015000 12.030000 # 4 
9146 1 3 -0.325600 35.416000 6.999001 12.117000 # 3 
9147 1 3 -0.325600 36.764000 5.032000 11.943001 # 3 
9148 1 4 0.651200 42.104996 0.000000 18.045000 # 4 
9149 1 3 -0.325600 41.431000 0.984000 18.132000 # 3 
9150 1 3 -0.325600 42.779003 -0.983000 17.958000 # 3 
9151 1 4 0.651200 39.098000 0.000000 12.030000 # 4 
9152 1 3 -0.325600 38.424000 0.984000 12.117000 # 3 
9153 1 3 -0.325600 39.771999 -0.983000 11.943001 # 3 
9154 1 4 0.651200 45.112999 0.000000 12.030000 # 4 
9155 1 3 -0.325600 44.439003 0.984000 12.117000 # 3 
9156 1 3 -0.325600 45.787003 -0.983000 11.943001 # 3 
9157 1 4 0.651200 36.090000 2.992000 18.045000 # 4 
9158 1 3 -0.325600 36.764000 2.009000 17.958000 # 3 
9159 1 3 -0.325600 35.416000 3.976000 18.132000 # 3 
9160 1 4 0.651200 36.090000 9.038000 18.045000 # 4 
9161 1 3 -0.325600 35.416000 10.022000 18.132000 # 3 
9162 1 3 -0.325600 36.764000 8.055000 17.958000 # 3 
9163 1 4 0.651200 42.104996 6.015000 15.022000 # 4 
9164 1 3 -0.325600 41.431000 6.999001 15.109000 # 3 
9165 1 3 -0.325600 42.779003 5.032000 14.934999 # 3 
9166 1 4 0.651200 42.104996 6.015000 21.068001 # 4 
9167 1 3 -0.325600 41.431000 6.999001 21.154999 # 3 
9168 1 3 -0.325600 42.779003 5.032000 20.980999 # 3 
9169 1 4 0.651200 24.059999 18.045000 12.030000 # 4 
9170 1 3 -0.325600 23.386000 19.028999 12.117000 # 3 
9171 1 3 -0.325600 24.734001 17.062000 11.943001 # 3 
9172 1 4 0.651200 30.074999 12.030000 18.045000 # 4 
9173 1 3 -0.325600 29.400999 13.014000 18.132000 # 3 
9174 1 3 -0.325600 30.748999 11.047000 17.958000 # 3 
9175 1 4 0.651200 27.068001 12.030000 12.030000 # 4 
9176 1 3 -0.325600 26.394001 13.014000 12.117000 # 3 
9177 1 3 -0.325600 27.742001 11.047000 11.943001 # 3 
9178 1 4 0.651200 33.083000 12.030000 12.030000 # 4 
9179 1 3 -0.325600 32.409000 13.014000 12.117000 # 3 
9180 1 3 -0.325600 33.757000 11.047000 11.943001 # 3 
9181 1 4 0.651200 24.059999 15.022000 18.045000 # 4 
9182 1 3 -0.325600 24.734001 14.039001 17.958000 # 3 
9183 1 3 -0.325600 23.386000 16.006001 18.132000 # 3 
9184 1 4 0.651200 24.059999 21.068001 18.045000 # 4 
9185 1 3 -0.325600 23.386000 22.052000 18.132000 # 3 
9186 1 3 -0.325600 24.734001 20.085001 17.958000 # 3 
9187 1 4 0.651200 30.074999 18.045000 15.022000 # 4 
9188 1 3 -0.325600 29.400999 19.028999 15.109000 # 3 
9189 1 3 -0.325600 30.748999 17.062000 14.934999 # 3 
9190 1 4 0.651200 30.074999 18.045000 21.068001 # 4 
9191 1 3 -0.325600 29.400999 19.028999 21.154999 # 3 
9192 1 3 -0.325600 30.748999 17.062000 20.980999 # 3 
9193 1 4 0.651200 36.090000 18.045000 12.030000 # 4 
9194 1 3 -0.325600 35.416000 19.028999 12.117000 # 3 
9195 1 3 -0.325600 36.764000 17.062000 11.943001 # 3 
9196 1 4 0.651200 42.104996 12.030000 18.045000 # 4 
9197 1 3 -0.325600 41.431000 13.014000 18.132000 # 3 
9198 1 3 -0.325600 42.779003 11.047000 17.958000 # 3 
9199 1 4 0.651200 39.098000 12.030000 12.030000 # 4 
9200 1 3 -0.325600 38.424000 13.014000 12.117000 # 3 
9201 1 3 -0.325600 39.771999 11.047000 11.943001 # 3 
9202 1 4 0.651200 45.112999 12.030000 12.030000 # 4 
9203 1 3 -0.325600 44.439003 13.014000 12.117000 # 3 
9204 1 3 -0.325600 45.787003 11.047000 11.943001 # 3 
9205 1 4 0.651200 36.090000 15.022000 18.045000 # 4 
9206 1 3 -0.325600 36.764000 14.039001 17.958000 # 3 
9207 1 3 -0.325600 35.416000 16.006001 18.132000 # 3 
9208 1 4 0.651200 36.090000 21.068001 18.045000 # 4 
9209 1 3 -0.325600 35.416000 22.052000 18.132000 # 3 
9210 1 3 -0.325600 36.764000 20.085001 17.958000 # 3 
9211 1 4 0.651200 42.104996 18.045000 15.022000 # 4 
9212 1 3 -0.325600 41.431000 19.028999 15.109000 # 3 
9213 1 3 -0.325600 42.779003 17.062000 14.934999 # 3 
9214 1 4 0.651200 42.104996 18.045000 21.068001 # 4 
9215 1 3 -0.325600 41.431000 19.028999 21.154999 # 3 
9216 1 3 -0.325600 42.779003 17.062000 20.980999 # 3 
9217 1 4 0.651200 12.030000 30.074999 0.000000 # 4 
9218 1 3 -0.325600 11.356000 31.059000 0.087000 # 3 
9219 1 3 -0.325600 12.704000 29.091999 -0.087000 # 3 
9220 1 4 0.651200 18.045000 24.059999 6.015000 # 4 
9221 1 3 -0.325600 17.371000 25.044001 6.102000 # 3 
9222 1 3 -0.325600 18.719000 23.077000 5.928000 # 3 
9223 1 4 0.651200 15.038000 24.059999 0.000000 # 4 
9224 1 3 -0.325600 14.364000 25.044001 0.087000 # 3 
9225 1 3 -0.325600 15.712000 23.077000 -0.087000 # 3 
9226 1 4 0.651200 21.052999 24.059999 0.000000 # 4 
9227 1 3 -0.325600 20.379000 25.044001 0.087000 # 3 
9228 1 3 -0.325600 21.726999 23.077000 -0.087000 # 3 
9229 1 4 0.651200 12.030000 27.052000 6.015000 # 4 
9230 1 3 -0.325600 12.704000 26.069000 5.928000 # 3 
9231 1 3 -0.325600 11.356000 28.036001 6.102000 # 3 
9232 1 4 0.651200 12.030000 33.098000 6.015000 # 4 
9233 1 3 -0.325600 11.356000 34.082001 6.102000 # 3 
9234 1 3 -0.325600 12.704000 32.114998 5.928000 # 3 
9235 1 4 0.651200 18.045000 30.074999 2.992000 # 4 
9236 1 3 -0.325600 17.371000 31.059000 3.079000 # 3 
9237 1 3 -0.325600 18.719000 29.091999 2.905000 # 3 
9238 1 4 0.651200 18.045000 30.074999 9.038000 # 4 
9239 1 3 -0.325600 17.371000 31.059000 9.125000 # 3 
9240 1 3 -0.325600 18.719000 29.091999 8.951000 # 3 
9241 1 4 0.651200 0.000000 42.104996 0.000000 # 4 
9242 1 3 -0.325600 -0.674000 43.088997 0.087000 # 3 
9243 1 3 -0.325600 0.674000 41.121998 -0.087000 # 3 
9244 1 4 0.651200 6.015000 36.090000 6.015000 # 4 
9245 1 3 -0.325600 5.341000 37.074001 6.102000 # 3 
9246 1 3 -0.325600 6.689000 35.106998 5.928000 # 3 
9247 1 4 0.651200 3.008000 36.090000 0.000000 # 4 
9248 1 3 -0.325600 2.334000 37.074001 0.087000 # 3 
9249 1 3 -0.325600 3.682000 35.106998 -0.087000 # 3 
9250 1 4 0.651200 9.023000 36.090000 0.000000 # 4 
9251 1 3 -0.325600 8.349000 37.074001 0.087000 # 3 
9252 1 3 -0.325600 9.697000 35.106998 -0.087000 # 3 
9253 1 4 0.651200 0.000000 39.082001 6.015000 # 4 
9254 1 3 -0.325600 0.674000 38.098999 5.928000 # 3 
9255 1 3 -0.325600 -0.674000 40.065998 6.102000 # 3 
9256 1 4 0.651200 0.000000 45.128002 6.015000 # 4 
9257 1 3 -0.325600 -0.674000 46.112000 6.102000 # 3 
9258 1 3 -0.325600 0.674000 44.145004 5.928000 # 3 
9259 1 4 0.651200 6.015000 42.104996 2.992000 # 4 
9260 1 3 -0.325600 5.341000 43.088997 3.079000 # 3 
9261 1 3 -0.325600 6.689000 41.121998 2.905000 # 3 
9262 1 4 0.651200 6.015000 42.104996 9.038000 # 4 
9263 1 3 -0.325600 5.341000 43.088997 9.125000 # 3 
9264 1 3 -0.325600 6.689000 41.121998 8.951000 # 3 
9265 1 4 0.651200 0.000000 30.074999 0.000000 # 4 
9266 1 3 -0.325600 -0.674000 31.059000 0.087000 # 3 
9267 1 3 -0.325600 0.674000 29.091999 -0.087000 # 3 
9268 1 4 0.651200 6.015000 24.059999 6.015000 # 4 
9269 1 3 -0.325600 5.341000 25.044001 6.102000 # 3 
9270 1 3 -0.325600 6.689000 23.077000 5.928000 # 3 
9271 1 4 0.651200 3.008000 24.059999 0.000000 # 4 
9272 1 3 -0.325600 2.334000 25.044001 0.087000 # 3 
9273 1 3 -0.325600 3.682000 23.077000 -0.087000 # 3 
9274 1 4 0.651200 9.023000 24.059999 0.000000 # 4 
9275 1 3 -0.325600 8.349000 25.044001 0.087000 # 3 
9276 1 3 -0.325600 9.697000 23.077000 -0.087000 # 3 
9277 1 4 0.651200 0.000000 27.052000 6.015000 # 4 
9278 1 3 -0.325600 0.674000 26.069000 5.928000 # 3 
9279 1 3 -0.325600 -0.674000 28.036001 6.102000 # 3 
9280 1 4 0.651200 0.000000 33.098000 6.015000 # 4 
9281 1 3 -0.325600 -0.674000 34.082001 6.102000 # 3 
9282 1 3 -0.325600 0.674000 32.114998 5.928000 # 3 
9283 1 4 0.651200 6.015000 30.074999 2.992000 # 4 
9284 1 3 -0.325600 5.341000 31.059000 3.079000 # 3 
9285 1 3 -0.325600 6.689000 29.091999 2.905000 # 3 
9286 1 4 0.651200 6.015000 30.074999 9.038000 # 4 
9287 1 3 -0.325600 5.341000 31.059000 9.125000 # 3 
9288 1 3 -0.325600 6.689000 29.091999 8.951000 # 3 
9289 1 4 0.651200 0.000000 30.074999 12.030000 # 4 
9290 1 3 -0.325600 -0.674000 31.059000 12.117000 # 3 
9291 1 3 -0.325600 0.674000 29.091999 11.943001 # 3 
9292 1 4 0.651200 6.015000 24.059999 18.045000 # 4 
9293 1 3 -0.325600 5.341000 25.044001 18.132000 # 3 
9294 1 3 -0.325600 6.689000 23.077000 17.958000 # 3 
9295 1 4 0.651200 3.008000 24.059999 12.030000 # 4 
9296 1 3 -0.325600 2.334000 25.044001 12.117000 # 3 
9297 1 3 -0.325600 3.682000 23.077000 11.943001 # 3 
9298 1 4 0.651200 9.023000 24.059999 12.030000 # 4 
9299 1 3 -0.325600 8.349000 25.044001 12.117000 # 3 
9300 1 3 -0.325600 9.697000 23.077000 11.943001 # 3 
9301 1 4 0.651200 0.000000 27.052000 18.045000 # 4 
9302 1 3 -0.325600 0.674000 26.069000 17.958000 # 3 
9303 1 3 -0.325600 -0.674000 28.036001 18.132000 # 3 
9304 1 4 0.651200 0.000000 33.098000 18.045000 # 4 
9305 1 3 -0.325600 -0.674000 34.082001 18.132000 # 3 
9306 1 3 -0.325600 0.674000 32.114998 17.958000 # 3 
9307 1 4 0.651200 6.015000 30.074999 15.022000 # 4 
9308 1 3 -0.325600 5.341000 31.059000 15.109000 # 3 
9309 1 3 -0.325600 6.689000 29.091999 14.934999 # 3 
9310 1 4 0.651200 6.015000 30.074999 21.068001 # 4 
9311 1 3 -0.325600 5.341000 31.059000 21.154999 # 3 
9312 1 3 -0.325600 6.689000 29.091999 20.980999 # 3 
9313 1 4 0.651200 12.030000 42.104996 0.000000 # 4 
9314 1 3 -0.325600 11.356000 43.088997 0.087000 # 3 
9315 1 3 -0.325600 12.704000 41.121998 -0.087000 # 3 
9316 1 4 0.651200 18.045000 36.090000 6.015000 # 4 
9317 1 3 -0.325600 17.371000 37.074001 6.102000 # 3 
9318 1 3 -0.325600 18.719000 35.106998 5.928000 # 3 
9319 1 4 0.651200 15.038000 36.090000 0.000000 # 4 
9320 1 3 -0.325600 14.364000 37.074001 0.087000 # 3 
9321 1 3 -0.325600 15.712000 35.106998 -0.087000 # 3 
9322 1 4 0.651200 21.052999 36.090000 0.000000 # 4 
9323 1 3 -0.325600 20.379000 37.074001 0.087000 # 3 
9324 1 3 -0.325600 21.726999 35.106998 -0.087000 # 3 
9325 1 4 0.651200 12.030000 39.082001 6.015000 # 4 
9326 1 3 -0.325600 12.704000 38.098999 5.928000 # 3 
9327 1 3 -0.325600 11.356000 40.065998 6.102000 # 3 
9328 1 4 0.651200 12.030000 45.128002 6.015000 # 4 
9329 1 3 -0.325600 11.356000 46.112000 6.102000 # 3 
9330 1 3 -0.325600 12.704000 44.145004 5.928000 # 3 
9331 1 4 0.651200 18.045000 42.104996 2.992000 # 4 
9332 1 3 -0.325600 17.371000 43.088997 3.079000 # 3 
9333 1 3 -0.325600 18.719000 41.121998 2.905000 # 3 
9334 1 4 0.651200 18.045000 42.104996 9.038000 # 4 
9335 1 3 -0.325600 17.371000 43.088997 9.125000 # 3 
9336 1 3 -0.325600 18.719000 41.121998 8.951000 # 3 
9337 1 4 0.651200 12.030000 30.074999 12.030000 # 4 
9338 1 3 -0.325600 11.356000 31.059000 12.117000 # 3 
9339 1 3 -0.325600 12.704000 29.091999 11.943001 # 3 
9340 1 4 0.651200 18.045000 24.059999 18.045000 # 4 
9341 1 3 -0.325600 17.371000 25.044001 18.132000 # 3 
9342 1 3 -0.325600 18.719000 23.077000 17.958000 # 3 
9343 1 4 0.651200 15.038000 24.059999 12.030000 # 4 
9344 1 3 -0.325600 14.364000 25.044001 12.117000 # 3 
9345 1 3 -0.325600 15.712000 23.077000 11.943001 # 3 
9346 1 4 0.651200 21.052999 24.059999 12.030000 # 4 
9347 1 3 -0.325600 20.379000 25.044001 12.117000 # 3 
9348 1 3 -0.325600 21.726999 23.077000 11.943001 # 3 
9349 1 4 0.651200 12.030000 27.052000 18.045000 # 4 
9350 1 3 -0.325600 12.704000 26.069000 17.958000 # 3 
9351 1 3 -0.325600 11.356000 28.036001 18.132000 # 3 
9352 1 4 0.651200 12.030000 33.098000 18.045000 # 4 
9353 1 3 -0.325600 11.356000 34.082001 18.132000 # 3 
9354 1 3 -0.325600 12.704000 32.114998 17.958000 # 3 
9355 1 4 0.651200 18.045000 30.074999 15.022000 # 4 
9356 1 3 -0.325600 17.371000 31.059000 15.109000 # 3 
9357 1 3 -0.325600 18.719000 29.091999 14.934999 # 3 
9358 1 4 0.651200 18.045000 30.074999 21.068001 # 4 
9359 1 3 -0.325600 17.371000 31.059000 21.154999 # 3 
9360 1 3 -0.325600 18.719000 29.091999 20.980999 # 3 
9361 1 4 0.651200 0.000000 42.104996 12.030000 # 4 
9362 1 3 -0.325600 -0.674000 43.088997 12.117000 # 3 
9363 1 3 -0.325600 0.674000 41.121998 11.943001 # 3 
9364 1 4 0.651200 6.015000 36.090000 18.045000 # 4 
9365 1 3 -0.325600 5.341000 37.074001 18.132000 # 3 
9366 1 3 -0.325600 6.689000 35.106998 17.958000 # 3 
9367 1 4 0.651200 3.008000 36.090000 12.030000 # 4 
9368 1 3 -0.325600 2.334000 37.074001 12.117000 # 3 
9369 1 3 -0.325600 3.682000 35.106998 11.943001 # 3 
9370 1 4 0.651200 9.023000 36.090000 12.030000 # 4 
9371 1 3 -0.325600 8.349000 37.074001 12.117000 # 3 
9372 1 3 -0.325600 9.697000 35.106998 11.943001 # 3 
9373 1 4 0.651200 0.000000 39.082001 18.045000 # 4 
9374 1 3 -0.325600 0.674000 38.098999 17.958000 # 3 
9375 1 3 -0.325600 -0.674000 40.065998 18.132000 # 3 
9376 1 4 0.651200 0.000000 45.128002 18.045000 # 4 
9377 1 3 -0.325600 -0.674000 46.112000 18.132000 # 3 
9378 1 3 -0.325600 0.674000 44.145004 17.958000 # 3 
9379 1 4 0.651200 6.015000 42.104996 15.022000 # 4 
9380 1 3 -0.325600 5.341000 43.088997 15.109000 # 3 
9381 1 3 -0.325600 6.689000 41.121998 14.934999 # 3 
9382 1 4 0.651200 6.015000 42.104996 21.068001 # 4 
9383 1 3 -0.325600 5.341000 43.088997 21.154999 # 3 
9384 1 3 -0.325600 6.689000 41.121998 20.980999 # 3 
9385 1 4 0.651200 12.030000 42.104996 12.030000 # 4 
9386 1 3 -0.325600 11.356000 43.088997 12.117000 # 3 
9387 1 3 -0.325600 12.704000 41.121998 11.943001 # 3 
9388 1 4 0.651200 18.045000 36.090000 18.045000 # 4 
9389 1 3 -0.325600 17.371000 37.074001 18.132000 # 3 
9390 1 3 -0.325600 18.719000 35.106998 17.958000 # 3 
9391 1 4 0.651200 15.038000 36.090000 12.030000 # 4 
9392 1 3 -0.325600 14.364000 37.074001 12.117000 # 3 
9393 1 3 -0.325600 15.712000 35.106998 11.943001 # 3 
9394 1 4 0.651200 21.052999 36.090000 12.030000 # 4 
9395 1 3 -0.325600 20.379000 37.074001 12.117000 # 3 
9396 1 3 -0.325600 21.726999 35.106998 11.943001 # 3 
9397 1 4 0.651200 12.030000 39.082001 18.045000 # 4 
9398 1 3 -0.325600 12.704000 38.098999 17.958000 # 3 
9399 1 3 -0.325600 11.356000 40.065998 18.132000 # 3 
9400 1 4 0.651200 12.030000 45.128002 18.045000 # 4 
9401 1 3 -0.325600 11.356000 46.112000 18.132000 # 3 
9402 1 3 -0.325600 12.704000 44.145004 17.958000 # 3 
9403 1 4 0.651200 18.045000 42.104996 15.022000 # 4 
9404 1 3 -0.325600 17.371000 43.088997 15.109000 # 3 
9405 1 3 -0.325600 18.719000 41.121998 14.934999 # 3 
9406 1 4 0.651200 18.045000 42.104996 21.068001 # 4 
9407 1 3 -0.325600 17.371000 43.088997 21.154999 # 3 
9408 1 3 -0.325600 18.719000 41.121998 20.980999 # 3 
9409 1 4 0.651200 36.090000 30.074999 0.000000 # 4 
9410 1 3 -0.325600 35.416000 31.059000 0.087000 # 3 
9411 1 3 -0.325600 36.764000 29.091999 -0.087000 # 3 
9412 1 4 0.651200 42.104996 24.059999 6.015000 # 4 
9413 1 3 -0.325600 41.431000 25.044001 6.102000 # 3 
9414 1 3 -0.325600 42.779003 23.077000 5.928000 # 3 
9415 1 4 0.651200 39.098000 24.059999 0.000000 # 4 
9416 1 3 -0.325600 38.424000 25.044001 0.087000 # 3 
9417 1 3 -0.325600 39.771999 23.077000 -0.087000 # 3 
9418 1 4 0.651200 45.112999 24.059999 0.000000 # 4 
9419 1 3 -0.325600 44.439003 25.044001 0.087000 # 3 
9420 1 3 -0.325600 45.787003 23.077000 -0.087000 # 3 
9421 1 4 0.651200 36.090000 27.052000 6.015000 # 4 
9422 1 3 -0.325600 36.764000 26.069000 5.928000 # 3 
9423 1 3 -0.325600 35.416000 28.036001 6.102000 # 3 
9424 1 4 0.651200 36.090000 33.098000 6.015000 # 4 
9425 1 3 -0.325600 35.416000 34.082001 6.102000 # 3 
9426 1 3 -0.325600 36.764000 32.114998 5.928000 # 3 
9427 1 4 0.651200 42.104996 30.074999 2.992000 # 4 
9428 1 3 -0.325600 41.431000 31.059000 3.079000 # 3 
9429 1 3 -0.325600 42.779003 29.091999 2.905000 # 3 
9430 1 4 0.651200 42.104996 30.074999 9.038000 # 4 
9431 1 3 -0.325600 41.431000 31.059000 9.125000 # 3 
9432 1 3 -0.325600 42.779003 29.091999 8.951000 # 3 
9433 1 4 0.651200 24.059999 42.104996 0.000000 # 4 
9434 1 3 -0.325600 23.386000 43.088997 0.087000 # 3 
9435 1 3 -0.325600 24.734001 41.121998 -0.087000 # 3 
9436 1 4 0.651200 30.074999 36.090000 6.015000 # 4 
9437 1 3 -0.325600 29.400999 37.074001 6.102000 # 3 
9438 1 3 -0.325600 30.748999 35.106998 5.928000 # 3 
9439 1 4 0.651200 27.068001 36.090000 0.000000 # 4 
9440 1 3 -0.325600 26.394001 37.074001 0.087000 # 3 
9441 1 3 -0.325600 27.742001 35.106998 -0.087000 # 3 
9442 1 4 0.651200 33.083000 36.090000 0.000000 # 4 
9443 1 3 -0.325600 32.409000 37.074001 0.087000 # 3 
9444 1 3 -0.325600 33.757000 35.106998 -0.087000 # 3 
9445 1 4 0.651200 24.059999 39.082001 6.015000 # 4 
9446 1 3 -0.325600 24.734001 38.098999 5.928000 # 3 
9447 1 3 -0.325600 23.386000 40.065998 6.102000 # 3 
9448 1 4 0.651200 24.059999 45.128002 6.015000 # 4 
9449 1 3 -0.325600 23.386000 46.112000 6.102000 # 3 
9450 1 3 -0.325600 24.734001 44.145004 5.928000 # 3 
9451 1 4 0.651200 30.074999 42.104996 2.992000 # 4 
9452 1 3 -0.325600 29.400999 43.088997 3.079000 # 3 
9453 1 3 -0.325600 30.748999 41.121998 2.905000 # 3 
9454 1 4 0.651200 30.074999 42.104996 9.038000 # 4 
9455 1 3 -0.325600 29.400999 43.088997 9.125000 # 3 
9456 1 3 -0.325600 30.748999 41.121998 8.951000 # 3 
9457 1 4 0.651200 24.059999 30.074999 0.000000 # 4 
9458 1 3 -0.325600 23.386000 31.059000 0.087000 # 3 
9459 1 3 -0.325600 24.734001 29.091999 -0.087000 # 3 
9460 1 4 0.651200 30.074999 24.059999 6.015000 # 4 
9461 1 3 -0.325600 29.400999 25.044001 6.102000 # 3 
9462 1 3 -0.325600 30.748999 23.077000 5.928000 # 3 
9463 1 4 0.651200 27.068001 24.059999 0.000000 # 4 
9464 1 3 -0.325600 26.394001 25.044001 0.087000 # 3 
9465 1 3 -0.325600 27.742001 23.077000 -0.087000 # 3 
9466 1 4 0.651200 33.083000 24.059999 0.000000 # 4 
9467 1 3 -0.325600 32.409000 25.044001 0.087000 # 3 
9468 1 3 -0.325600 33.757000 23.077000 -0.087000 # 3 
9469 1 4 0.651200 24.059999 27.052000 6.015000 # 4 
9470 1 3 -0.325600 24.734001 26.069000 5.928000 # 3 
9471 1 3 -0.325600 23.386000 28.036001 6.102000 # 3 
9472 1 4 0.651200 24.059999 33.098000 6.015000 # 4 
9473 1 3 -0.325600 23.386000 34.082001 6.102000 # 3 
9474 1 3 -0.325600 24.734001 32.114998 5.928000 # 3 
9475 1 4 0.651200 30.074999 30.074999 2.992000 # 4 
9476 1 3 -0.325600 29.400999 31.059000 3.079000 # 3 
9477 1 3 -0.325600 30.748999 29.091999 2.905000 # 3 
9478 1 4 0.651200 30.074999 30.074999 9.038000 # 4 
9479 1 3 -0.325600 29.400999 31.059000 9.125000 # 3 
9480 1 3 -0.325600 30.748999 29.091999 8.951000 # 3 
9481 1 4 0.651200 24.059999 30.074999 12.030000 # 4 
9482 1 3 -0.325600 23.386000 31.059000 12.117000 # 3 
9483 1 3 -0.325600 24.734001 29.091999 11.943001 # 3 
9484 1 4 0.651200 30.074999 24.059999 18.045000 # 4 
9485 1 3 -0.325600 29.400999 25.044001 18.132000 # 3 
9486 1 3 -0.325600 30.748999 23.077000 17.958000 # 3 
9487 1 4 0.651200 27.068001 24.059999 12.030000 # 4 
9488 1 3 -0.325600 26.394001 25.044001 12.117000 # 3 
9489 1 3 -0.325600 27.742001 23.077000 11.943001 # 3 
9490 1 4 0.651200 33.083000 24.059999 12.030000 # 4 
9491 1 3 -0.325600 32.409000 25.044001 12.117000 # 3 
9492 1 3 -0.325600 33.757000 23.077000 11.943001 # 3 
9493 1 4 0.651200 24.059999 27.052000 18.045000 # 4 
9494 1 3 -0.325600 24.734001 26.069000 17.958000 # 3 
9495 1 3 -0.325600 23.386000 28.036001 18.132000 # 3 
9496 1 4 0.651200 24.059999 33.098000 18.045000 # 4 
9497 1 3 -0.325600 23.386000 34.082001 18.132000 # 3 
9498 1 3 -0.325600 24.734001 32.114998 17.958000 # 3 
9499 1 4 0.651200 30.074999 30.074999 15.022000 # 4 
9500 1 3 -0.325600 29.400999 31.059000 15.109000 # 3 
9501 1 3 -0.325600 30.748999 29.091999 14.934999 # 3 
9502 1 4 0.651200 30.074999 30.074999 21.068001 # 4 
9503 1 3 -0.325600 29.400999 31.059000 21.154999 # 3 
9504 1 3 -0.325600 30.748999 29.091999 20.980999 # 3 
9505 1 4 0.651200 36.090000 42.104996 0.000000 # 4 
9506 1 3 -0.325600 35.416000 43.088997 0.087000 # 3 
9507 1 3 -0.325600 36.764000 41.121998 -0.087000 # 3 
9508 1 4 0.651200 42.104996 36.090000 6.015000 # 4 
9509 1 3 -0.325600 41.431000 37.074001 6.102000 # 3 
9510 1 3 -0.325600 42.779003 35.106998 5.928000 # 3 
9511 1 4 0.651200 39.098000 36.090000 0.000000 # 4 
9512 1 3 -0.325600 38.424000 37.074001 0.087000 # 3 
9513 1 3 -0.325600 39.771999 35.106998 -0.087000 # 3 
9514 1 4 0.651200 45.112999 36.090000 0.000000 # 4 
9515 1 3 -0.325600 44.439003 37.074001 0.087000 # 3 
9516 1 3 -0.325600 45.787003 35.106998 -0.087000 # 3 
9517 1 4 0.651200 36.090000 39.082001 6.015000 # 4 
9518 1 3 -0.325600 36.764000 38.098999 5.928000 # 3 
9519 1 3 -0.325600 35.416000 40.065998 6.102000 # 3 
9520 1 4 0.651200 36.090000 45.128002 6.015000 # 4 
9521 1 3 -0.325600 35.416000 46.112000 6.102000 # 3 
9522 1 3 -0.325600 36.764000 44.145004 5.928000 # 3 
9523 1 4 0.651200 42.104996 42.104996 2.992000 # 4 
9524 1 3 -0.325600 41.431000 43.088997 3.079000 # 3 
9525 1 3 -0.325600 42.779003 41.121998 2.905000 # 3 
9526 1 4 0.651200 42.104996 42.104996 9.038000 # 4 
9527 1 3 -0.325600 41.431000 43.088997 9.125000 # 3 
9528 1 3 -0.325600 42.779003 41.121998 8.951000 # 3 
9529 1 4 0.651200 36.090000 30.074999 12.030000 # 4 
9530 1 3 -0.325600 35.416000 31.059000 12.117000 # 3 
9531 1 3 -0.325600 36.764000 29.091999 11.943001 # 3 
9532 1 4 0.651200 42.104996 24.059999 18.045000 # 4 
9533 1 3 -0.325600 41.431000 25.044001 18.132000 # 3 
9534 1 3 -0.325600 42.779003 23.077000 17.958000 # 3 
9535 1 4 0.651200 39.098000 24.059999 12.030000 # 4 
9536 1 3 -0.325600 38.424000 25.044001 12.117000 # 3 
9537 1 3 -0.325600 39.771999 23.077000 11.943001 # 3 
9538 1 4 0.651200 45.112999 24.059999 12.030000 # 4 
9539 1 3 -0.325600 44.439003 25.044001 12.117000 # 3 
9540 1 3 -0.325600 45.787003 23.077000 11.943001 # 3 
9541 1 4 0.651200 36.090000 27.052000 18.045000 # 4 
9542 1 3 -0.325600 36.764000 26.069000 17.958000 # 3 
9543 1 3 -0.325600 35.416000 28.036001 18.132000 # 3 
9544 1 4 0.651200 36.090000 33.098000 18.045000 # 4 
9545 1 3 -0.325600 35.416000 34.082001 18.132000 # 3 
9546 1 3 -0.325600 36.764000 32.114998 17.958000 # 3 
9547 1 4 0.651200 42.104996 30.074999 15.022000 # 4 
9548 1 3 -0.325600 41.431000 31.059000 15.109000 # 3 
9549 1 3 -0.325600 42.779003 29.091999 14.934999 # 3 
9550 1 4 0.651200 42.104996 30.074999 21.068001 # 4 
9551 1 3 -0.325600 41.431000 31.059000 21.154999 # 3 
9552 1 3 -0.325600 42.779003 29.091999 20.980999 # 3 
9553 1 4 0.651200 24.059999 42.104996 12.030000 # 4 
9554 1 3 -0.325600 23.386000 43.088997 12.117000 # 3 
9555 1 3 -0.325600 24.734001 41.121998 11.943001 # 3 
9556 1 4 0.651200 30.074999 36.090000 18.045000 # 4 
9557 1 3 -0.325600 29.400999 37.074001 18.132000 # 3 
9558 1 3 -0.325600 30.748999 35.106998 17.958000 # 3 
9559 1 4 0.651200 27.068001 36.090000 12.030000 # 4 
9560 1 3 -0.325600 26.394001 37.074001 12.117000 # 3 
9561 1 3 -0.325600 27.742001 35.106998 11.943001 # 3 
9562 1 4 0.651200 33.083000 36.090000 12.030000 # 4 
9563 1 3 -0.325600 32.409000 37.074001 12.117000 # 3 
9564 1 3 -0.325600 33.757000 35.106998 11.943001 # 3 
9565 1 4 0.651200 24.059999 39.082001 18.045000 # 4 
9566 1 3 -0.325600 24.734001 38.098999 17.958000 # 3 
9567 1 3 -0.325600 23.386000 40.065998 18.132000 # 3 
9568 1 4 0.651200 24.059999 45.128002 18.045000 # 4 
9569 1 3 -0.325600 23.386000 46.112000 18.132000 # 3 
9570 1 3 -0.325600 24.734001 44.145004 17.958000 # 3 
9571 1 4 0.651200 30.074999 42.104996 15.022000 # 4 
9572 1 3 -0.325600 29.400999 43.088997 15.109000 # 3 
9573 1 3 -0.325600 30.748999 41.121998 14.934999 # 3 
9574 1 4 0.651200 30.074999 42.104996 21.068001 # 4 
9575 1 3 -0.325600 29.400999 43.088997 21.154999 # 3 
9576 1 3 -0.325600 30.748999 41.121998 20.980999 # 3 
9577 1 4 0.651200 36.090000 42.104996 12.030000 # 4 
9578 1 3 -0.325600 35.416000 43.088997 12.117000 # 3 
9579 1 3 -0.325600 36.764000 41.121998 11.943001 # 3 
9580 1 4 0.651200 42.104996 36.090000 18.045000 # 4 
9581 1 3 -0.325600 41.431000 37.074001 18.132000 # 3 
9582 1 3 -0.325600 42.779003 35.106998 17.958000 # 3 
9583 1 4 0.651200 39.098000 36.090000 12.030000 # 4 
9584 1 3 -0.325600 38.424000 37.074001 12.117000 # 3 
9585 1 3 -0.325600 39.771999 35.106998 11.943001 # 3 
9586 1 4 0.651200 45.112999 36.090000 12.030000 # 4 
9587 1 3 -0.325600 44.439003 37.074001 12.117000 # 3 
9588 1 3 -0.325600 45.787003 35.106998 11.943001 # 3 
9589 1 4 0.651200 36.090000 39.082001 18.045000 # 4 
9590 1 3 -0.325600 36.764000 38.098999 17.958000 # 3 
9591 1 3 -0.325600 35.416000 40.065998 18.132000 # 3 
9592 1 4 0.651200 36.090000 45.128002 18.045000 # 4 
9593 1 3 -0.325600 35.416000 46.112000 18.132000 # 3 
9594 1 3 -0.325600 36.764000 44.145004 17.958000 # 3 
9595 1 4 0.651200 42.104996 42.104996 15.022000 # 4 
9596 1 3 -0.325600 41.431000 43.088997 15.109000 # 3 
9597 1 3 -0.325600 42.779003 41.121998 14.934999 # 3 
9598 1 4 0.651200 42.104996 42.104996 21.068001 # 4 
9599 1 3 -0.325600 41.431000 43.088997 21.154999 # 3 
9600 1 3 -0.325600 42.779003 41.121998 20.980999 # 3 
9601 1 4 0.651200 12.030000 6.015000 24.059999 # 4 
9602 1 3 -0.325600 11.356000 6.999001 24.146999 # 3 
9603 1 3 -0.325600 12.704000 5.032000 23.973000 # 3 
9604 1 4 0.651200 18.045000 0.000000 30.074999 # 4 
9605 1 3 -0.325600 17.371000 0.984000 30.162001 # 3 
9606 1 3 -0.325600 18.719000 -0.983000 29.988001 # 3 
9607 1 4 0.651200 15.038000 0.000000 24.059999 # 4 
9608 1 3 -0.325600 14.364000 0.984000 24.146999 # 3 
9609 1 3 -0.325600 15.712000 -0.983000 23.973000 # 3 
9610 1 4 0.651200 21.052999 0.000000 24.059999 # 4 
9611 1 3 -0.325600 20.379000 0.984000 24.146999 # 3 
9612 1 3 -0.325600 21.726999 -0.983000 23.973000 # 3 
9613 1 4 0.651200 12.030000 2.992000 30.074999 # 4 
9614 1 3 -0.325600 12.704000 2.009000 29.988001 # 3 
9615 1 3 -0.325600 11.356000 3.976000 30.162001 # 3 
9616 1 4 0.651200 12.030000 9.038000 30.074999 # 4 
9617 1 3 -0.325600 11.356000 10.022000 30.162001 # 3 
9618 1 3 -0.325600 12.704000 8.055000 29.988001 # 3 
9619 1 4 0.651200 18.045000 6.015000 27.052000 # 4 
9620 1 3 -0.325600 17.371000 6.999001 27.139000 # 3 
9621 1 3 -0.325600 18.719000 5.032000 26.965000 # 3 
9622 1 4 0.651200 18.045000 6.015000 33.098000 # 4 
9623 1 3 -0.325600 17.371000 6.999001 33.185001 # 3 
9624 1 3 -0.325600 18.719000 5.032000 33.011002 # 3 
9625 1 4 0.651200 0.000000 18.045000 24.059999 # 4 
9626 1 3 -0.325600 -0.674000 19.028999 24.146999 # 3 
9627 1 3 -0.325600 0.674000 17.062000 23.973000 # 3 
9628 1 4 0.651200 6.015000 12.030000 30.074999 # 4 
9629 1 3 -0.325600 5.341000 13.014000 30.162001 # 3 
9630 1 3 -0.325600 6.689000 11.047000 29.988001 # 3 
9631 1 4 0.651200 3.008000 12.030000 24.059999 # 4 
9632 1 3 -0.325600 2.334000 13.014000 24.146999 # 3 
9633 1 3 -0.325600 3.682000 11.047000 23.973000 # 3 
9634 1 4 0.651200 9.023000 12.030000 24.059999 # 4 
9635 1 3 -0.325600 8.349000 13.014000 24.146999 # 3 
9636 1 3 -0.325600 9.697000 11.047000 23.973000 # 3 
9637 1 4 0.651200 0.000000 15.022000 30.074999 # 4 
9638 1 3 -0.325600 0.674000 14.039001 29.988001 # 3 
9639 1 3 -0.325600 -0.674000 16.006001 30.162001 # 3 
9640 1 4 0.651200 0.000000 21.068001 30.074999 # 4 
9641 1 3 -0.325600 -0.674000 22.052000 30.162001 # 3 
9642 1 3 -0.325600 0.674000 20.085001 29.988001 # 3 
9643 1 4 0.651200 6.015000 18.045000 27.052000 # 4 
9644 1 3 -0.325600 5.341000 19.028999 27.139000 # 3 
9645 1 3 -0.325600 6.689000 17.062000 26.965000 # 3 
9646 1 4 0.651200 6.015000 18.045000 33.098000 # 4 
9647 1 3 -0.325600 5.341000 19.028999 33.185001 # 3 
9648 1 3 -0.325600 6.689000 17.062000 33.011002 # 3 
9649 1 4 0.651200 0.000000 6.015000 24.059999 # 4 
9650 1 3 -0.325600 -0.674000 6.999001 24.146999 # 3 
9651 1 3 -0.325600 0.674000 5.032000 23.973000 # 3 
9652 1 4 0.651200 6.015000 0.000000 30.074999 # 4 
9653 1 3 -0.325600 5.341000 0.984000 30.162001 # 3 
9654 1 3 -0.325600 6.689000 -0.983000 29.988001 # 3 
9655 1 4 0.651200 3.008000 0.000000 24.059999 # 4 
9656 1 3 -0.325600 2.334000 0.984000 24.146999 # 3 
9657 1 3 -0.325600 3.682000 -0.983000 23.973000 # 3 
9658 1 4 0.651200 9.023000 0.000000 24.059999 # 4 
9659 1 3 -0.325600 8.349000 0.984000 24.146999 # 3 
9660 1 3 -0.325600 9.697000 -0.983000 23.973000 # 3 
9661 1 4 0.651200 0.000000 2.992000 30.074999 # 4 
9662 1 3 -0.325600 0.674000 2.009000 29.988001 # 3 
9663 1 3 -0.325600 -0.674000 3.976000 30.162001 # 3 
9664 1 4 0.651200 0.000000 9.038000 30.074999 # 4 
9665 1 3 -0.325600 -0.674000 10.022000 30.162001 # 3 
9666 1 3 -0.325600 0.674000 8.055000 29.988001 # 3 
9667 1 4 0.651200 6.015000 6.015000 27.052000 # 4 
9668 1 3 -0.325600 5.341000 6.999001 27.139000 # 3 
9669 1 3 -0.325600 6.689000 5.032000 26.965000 # 3 
9670 1 4 0.651200 6.015000 6.015000 33.098000 # 4 
9671 1 3 -0.325600 5.341000 6.999001 33.185001 # 3 
9672 1 3 -0.325600 6.689000 5.032000 33.011002 # 3 
9673 1 4 0.651200 0.000000 6.015000 36.090000 # 4 
9674 1 3 -0.325600 -0.674000 6.999001 36.177002 # 3 
9675 1 3 -0.325600 0.674000 5.032000 36.003002 # 3 
9676 1 4 0.651200 6.015000 0.000000 42.104996 # 4 
9677 1 3 -0.325600 5.341000 0.984000 42.192001 # 3 
9678 1 3 -0.325600 6.689000 -0.983000 42.017998 # 3 
9679 1 4 0.651200 3.008000 0.000000 36.090000 # 4 
9680 1 3 -0.325600 2.334000 0.984000 36.177002 # 3 
9681 1 3 -0.325600 3.682000 -0.983000 36.003002 # 3 
9682 1 4 0.651200 9.023000 0.000000 36.090000 # 4 
9683 1 3 -0.325600 8.349000 0.984000 36.177002 # 3 
9684 1 3 -0.325600 9.697000 -0.983000 36.003002 # 3 
9685 1 4 0.651200 0.000000 2.992000 42.104996 # 4 
9686 1 3 -0.325600 0.674000 2.009000 42.017998 # 3 
9687 1 3 -0.325600 -0.674000 3.976000 42.192001 # 3 
9688 1 4 0.651200 0.000000 9.038000 42.104996 # 4 
9689 1 3 -0.325600 -0.674000 10.022000 42.192001 # 3 
9690 1 3 -0.325600 0.674000 8.055000 42.017998 # 3 
9691 1 4 0.651200 6.015000 6.015000 39.082001 # 4 
9692 1 3 -0.325600 5.341000 6.999001 39.168999 # 3 
9693 1 3 -0.325600 6.689000 5.032000 38.994999 # 3 
9694 1 4 0.651200 6.015000 6.015000 45.128002 # 4 
9695 1 3 -0.325600 5.341000 6.999001 45.215000 # 3 
9696 1 3 -0.325600 6.689000 5.032000 45.041000 # 3 
9697 1 4 0.651200 12.030000 18.045000 24.059999 # 4 
9698 1 3 -0.325600 11.356000 19.028999 24.146999 # 3 
9699 1 3 -0.325600 12.704000 17.062000 23.973000 # 3 
9700 1 4 0.651200 18.045000 12.030000 30.074999 # 4 
9701 1 3 -0.325600 17.371000 13.014000 30.162001 # 3 
9702 1 3 -0.325600 18.719000 11.047000 29.988001 # 3 
9703 1 4 0.651200 15.038000 12.030000 24.059999 # 4 
9704 1 3 -0.325600 14.364000 13.014000 24.146999 # 3 
9705 1 3 -0.325600 15.712000 11.047000 23.973000 # 3 
9706 1 4 0.651200 21.052999 12.030000 24.059999 # 4 
9707 1 3 -0.325600 20.379000 13.014000 24.146999 # 3 
9708 1 3 -0.325600 21.726999 11.047000 23.973000 # 3 
9709 1 4 0.651200 12.030000 15.022000 30.074999 # 4 
9710 1 3 -0.325600 12.704000 14.039001 29.988001 # 3 
9711 1 3 -0.325600 11.356000 16.006001 30.162001 # 3 
9712 1 4 0.651200 12.030000 21.068001 30.074999 # 4 
9713 1 3 -0.325600 11.356000 22.052000 30.162001 # 3 
9714 1 3 -0.325600 12.704000 20.085001 29.988001 # 3 
9715 1 4 0.651200 18.045000 18.045000 27.052000 # 4 
9716 1 3 -0.325600 17.371000 19.028999 27.139000 # 3 
9717 1 3 -0.325600 18.719000 17.062000 26.965000 # 3 
9718 1 4 0.651200 18.045000 18.045000 33.098000 # 4 
9719 1 3 -0.325600 17.371000 19.028999 33.185001 # 3 
9720 1 3 -0.325600 18.719000 17.062000 33.011002 # 3 
9721 1 4 0.651200 12.030000 6.015000 36.090000 # 4 
9722 1 3 -0.325600 11.356000 6.999001 36.177002 # 3 
9723 1 3 -0.325600 12.704000 5.032000 36.003002 # 3 
9724 1 4 0.651200 18.045000 0.000000 42.104996 # 4 
9725 1 3 -0.325600 17.371000 0.984000 42.192001 # 3 
9726 1 3 -0.325600 18.719000 -0.983000 42.017998 # 3 
9727 1 4 0.651200 15.038000 0.000000 36.090000 # 4 
9728 1 3 -0.325600 14.364000 0.984000 36.177002 # 3 
9729 1 3 -0.325600 15.712000 -0.983000 36.003002 # 3 
9730 1 4 0.651200 21.052999 0.000000 36.090000 # 4 
9731 1 3 -0.325600 20.379000 0.984000 36.177002 # 3 
9732 1 3 -0.325600 21.726999 -0.983000 36.003002 # 3 
9733 1 4 0.651200 12.030000 2.992000 42.104996 # 4 
9734 1 3 -0.325600 12.704000 2.009000 42.017998 # 3 
9735 1 3 -0.325600 11.356000 3.976000 42.192001 # 3 
9736 1 4 0.651200 12.030000 9.038000 42.104996 # 4 
9737 1 3 -0.325600 11.356000 10.022000 42.192001 # 3 
9738 1 3 -0.325600 12.704000 8.055000 42.017998 # 3 
9739 1 4 0.651200 18.045000 6.015000 39.082001 # 4 
9740 1 3 -0.325600 17.371000 6.999001 39.168999 # 3 
9741 1 3 -0.325600 18.719000 5.032000 38.994999 # 3 
9742 1 4 0.651200 18.045000 6.015000 45.128002 # 4 
9743 1 3 -0.325600 17.371000 6.999001 45.215000 # 3 
9744 1 3 -0.325600 18.719000 5.032000 45.041000 # 3 
9745 1 4 0.651200 0.000000 18.045000 36.090000 # 4 
9746 1 3 -0.325600 -0.674000 19.028999 36.177002 # 3 
9747 1 3 -0.325600 0.674000 17.062000 36.003002 # 3 
9748 1 4 0.651200 6.015000 12.030000 42.104996 # 4 
9749 1 3 -0.325600 5.341000 13.014000 42.192001 # 3 
9750 1 3 -0.325600 6.689000 11.047000 42.017998 # 3 
9751 1 4 0.651200 3.008000 12.030000 36.090000 # 4 
9752 1 3 -0.325600 2.334000 13.014000 36.177002 # 3 
9753 1 3 -0.325600 3.682000 11.047000 36.003002 # 3 
9754 1 4 0.651200 9.023000 12.030000 36.090000 # 4 
9755 1 3 -0.325600 8.349000 13.014000 36.177002 # 3 
9756 1 3 -0.325600 9.697000 11.047000 36.003002 # 3 
9757 1 4 0.651200 0.000000 15.022000 42.104996 # 4 
9758 1 3 -0.325600 0.674000 14.039001 42.017998 # 3 
9759 1 3 -0.325600 -0.674000 16.006001 42.192001 # 3 
9760 1 4 0.651200 0.000000 21.068001 42.104996 # 4 
9761 1 3 -0.325600 -0.674000 22.052000 42.192001 # 3 
9762 1 3 -0.325600 0.674000 20.085001 42.017998 # 3 
9763 1 4 0.651200 6.015000 18.045000 39.082001 # 4 
9764 1 3 -0.325600 5.341000 19.028999 39.168999 # 3 
9765 1 3 -0.325600 6.689000 17.062000 38.994999 # 3 
9766 1 4 0.651200 6.015000 18.045000 45.128002 # 4 
9767 1 3 -0.325600 5.341000 19.028999 45.215000 # 3 
9768 1 3 -0.325600 6.689000 17.062000 45.041000 # 3 
9769 1 4 0.651200 12.030000 18.045000 36.090000 # 4 
9770 1 3 -0.325600 11.356000 19.028999 36.177002 # 3 
9771 1 3 -0.325600 12.704000 17.062000 36.003002 # 3 
9772 1 4 0.651200 18.045000 12.030000 42.104996 # 4 
9773 1 3 -0.325600 17.371000 13.014000 42.192001 # 3 
9774 1 3 -0.325600 18.719000 11.047000 42.017998 # 3 
9775 1 4 0.651200 15.038000 12.030000 36.090000 # 4 
9776 1 3 -0.325600 14.364000 13.014000 36.177002 # 3 
9777 1 3 -0.325600 15.712000 11.047000 36.003002 # 3 
9778 1 4 0.651200 21.052999 12.030000 36.090000 # 4 
9779 1 3 -0.325600 20.379000 13.014000 36.177002 # 3 
9780 1 3 -0.325600 21.726999 11.047000 36.003002 # 3 
9781 1 4 0.651200 12.030000 15.022000 42.104996 # 4 
9782 1 3 -0.325600 12.704000 14.039001 42.017998 # 3 
9783 1 3 -0.325600 11.356000 16.006001 42.192001 # 3 
9784 1 4 0.651200 12.030000 21.068001 42.104996 # 4 
9785 1 3 -0.325600 11.356000 22.052000 42.192001 # 3 
9786 1 3 -0.325600 12.704000 20.085001 42.017998 # 3 
9787 1 4 0.651200 18.045000 18.045000 39.082001 # 4 
9788 1 3 -0.325600 17.371000 19.028999 39.168999 # 3 
9789 1 3 -0.325600 18.719000 17.062000 38.994999 # 3 
9790 1 4 0.651200 18.045000 18.045000 45.128002 # 4 
9791 1 3 -0.325600 17.371000 19.028999 45.215000 # 3 
9792 1 3 -0.325600 18.719000 17.062000 45.041000 # 3 
9793 1 4 0.651200 36.090000 6.015000 24.059999 # 4 
9794 1 3 -0.325600 35.416000 6.999001 24.146999 # 3 
9795 1 3 -0.325600 36.764000 5.032000 23.973000 # 3 
9796 1 4 0.651200 42.104996 0.000000 30.074999 # 4 
9797 1 3 -0.325600 41.431000 0.984000 30.162001 # 3 
9798 1 3 -0.325600 42.779003 -0.983000 29.988001 # 3 
9799 1 4 0.651200 39.098000 0.000000 24.059999 # 4 
9800 1 3 -0.325600 38.424000 0.984000 24.146999 # 3 
9801 1 3 -0.325600 39.771999 -0.983000 23.973000 # 3 
9802 1 4 0.651200 45.112999 0.000000 24.059999 # 4 
9803 1 3 -0.325600 44.439003 0.984000 24.146999 # 3 
9804 1 3 -0.325600 45.787003 -0.983000 23.973000 # 3 
9805 1 4 0.651200 36.090000 2.992000 30.074999 # 4 
9806 1 3 -0.325600 36.764000 2.009000 29.988001 # 3 
9807 1 3 -0.325600 35.416000 3.976000 30.162001 # 3 
9808 1 4 0.651200 36.090000 9.038000 30.074999 # 4 
9809 1 3 -0.325600 35.416000 10.022000 30.162001 # 3 
9810 1 3 -0.325600 36.764000 8.055000 29.988001 # 3 
9811 1 4 0.651200 42.104996 6.015000 27.052000 # 4 
9812 1 3 -0.325600 41.431000 6.999001 27.139000 # 3 
9813 1 3 -0.325600 42.779003 5.032000 26.965000 # 3 
9814 1 4 0.651200 42.104996 6.015000 33.098000 # 4 
9815 1 3 -0.325600 41.431000 6.999001 33.185001 # 3 
9816 1 3 -0.325600 42.779003 5.032000 33.011002 # 3 
9817 1 4 0.651200 24.059999 18.045000 24.059999 # 4 
9818 1 3 -0.325600 23.386000 19.028999 24.146999 # 3 
9819 1 3 -0.325600 24.734001 17.062000 23.973000 # 3 
9820 1 4 0.651200 30.074999 12.030000 30.074999 # 4 
9821 1 3 -0.325600 29.400999 13.014000 30.162001 # 3 
9822 1 3 -0.325600 30.748999 11.047000 29.988001 # 3 
9823 1 4 0.651200 27.068001 12.030000 24.059999 # 4 
9824 1 3 -0.325600 26.394001 13.014000 24.146999 # 3 
9825 1 3 -0.325600 27.742001 11.047000 23.973000 # 3 
9826 1 4 0.651200 33.083000 12.030000 24.059999 # 4 
9827 1 3 -0.325600 32.409000 13.014000 24.146999 # 3 
9828 1 3 -0.325600 33.757000 11.047000 23.973000 # 3 
9829 1 4 0.651200 24.059999 15.022000 30.074999 # 4 
9830 1 3 -0.325600 24.734001 14.039001 29.988001 # 3 
9831 1 3 -0.325600 23.386000 16.006001 30.162001 # 3 
9832 1 4 0.651200 24.059999 21.068001 30.074999 # 4 
9833 1 3 -0.325600 23.386000 22.052000 30.162001 # 3 
9834 1 3 -0.325600 24.734001 20.085001 29.988001 # 3 
9835 1 4 0.651200 30.074999 18.045000 27.052000 # 4 
9836 1 3 -0.325600 29.400999 19.028999 27.139000 # 3 
9837 1 3 -0.325600 30.748999 17.062000 26.965000 # 3 
9838 1 4 0.651200 30.074999 18.045000 33.098000 # 4 
9839 1 3 -0.325600 29.400999 19.028999 33.185001 # 3 
9840 1 3 -0.325600 30.748999 17.062000 33.011002 # 3 
9841 1 4 0.651200 24.059999 6.015000 24.059999 # 4 
9842 1 3 -0.325600 23.386000 6.999001 24.146999 # 3 
9843 1 3 -0.325600 24.734001 5.032000 23.973000 # 3 
9844 1 4 0.651200 30.074999 0.000000 30.074999 # 4 
9845 1 3 -0.325600 29.400999 0.984000 30.162001 # 3 
9846 1 3 -0.325600 30.748999 -0.983000 29.988001 # 3 
9847 1 4 0.651200 27.068001 0.000000 24.059999 # 4 
9848 1 3 -0.325600 26.394001 0.984000 24.146999 # 3 
9849 1 3 -0.325600 27.742001 -0.983000 23.973000 # 3 
9850 1 4 0.651200 33.083000 0.000000 24.059999 # 4 
9851 1 3 -0.325600 32.409000 0.984000 24.146999 # 3 
9852 1 3 -0.325600 33.757000 -0.983000 23.973000 # 3 
9853 1 4 0.651200 24.059999 2.992000 30.074999 # 4 
9854 1 3 -0.325600 24.734001 2.009000 29.988001 # 3 
9855 1 3 -0.325600 23.386000 3.976000 30.162001 # 3 
9856 1 4 0.651200 24.059999 9.038000 30.074999 # 4 
9857 1 3 -0.325600 23.386000 10.022000 30.162001 # 3 
9858 1 3 -0.325600 24.734001 8.055000 29.988001 # 3 
9859 1 4 0.651200 30.074999 6.015000 27.052000 # 4 
9860 1 3 -0.325600 29.400999 6.999001 27.139000 # 3 
9861 1 3 -0.325600 30.748999 5.032000 26.965000 # 3 
9862 1 4 0.651200 30.074999 6.015000 33.098000 # 4 
9863 1 3 -0.325600 29.400999 6.999001 33.185001 # 3 
9864 1 3 -0.325600 30.748999 5.032000 33.011002 # 3 
9865 1 4 0.651200 24.059999 6.015000 36.090000 # 4 
9866 1 3 -0.325600 23.386000 6.999001 36.177002 # 3 
9867 1 3 -0.325600 24.734001 5.032000 36.003002 # 3 
9868 1 4 0.651200 30.074999 0.000000 42.104996 # 4 
9869 1 3 -0.325600 29.400999 0.984000 42.192001 # 3 
9870 1 3 -0.325600 30.748999 -0.983000 42.017998 # 3 
9871 1 4 0.651200 27.068001 0.000000 36.090000 # 4 
9872 1 3 -0.325600 26.394001 0.984000 36.177002 # 3 
9873 1 3 -0.325600 27.742001 -0.983000 36.003002 # 3 
9874 1 4 0.651200 33.083000 0.000000 36.090000 # 4 
9875 1 3 -0.325600 32.409000 0.984000 36.177002 # 3 
9876 1 3 -0.325600 33.757000 -0.983000 36.003002 # 3 
9877 1 4 0.651200 24.059999 2.992000 42.104996 # 4 
9878 1 3 -0.325600 24.734001 2.009000 42.017998 # 3 
9879 1 3 -0.325600 23.386000 3.976000 42.192001 # 3 
9880 1 4 0.651200 24.059999 9.038000 42.104996 # 4 
9881 1 3 -0.325600 23.386000 10.022000 42.192001 # 3 
9882 1 3 -0.325600 24.734001 8.055000 42.017998 # 3 
9883 1 4 0.651200 30.074999 6.015000 39.082001 # 4 
9884 1 3 -0.325600 29.400999 6.999001 39.168999 # 3 
9885 1 3 -0.325600 30.748999 5.032000 38.994999 # 3 
9886 1 4 0.651200 30.074999 6.015000 45.128002 # 4 
9887 1 3 -0.325600 29.400999 6.999001 45.215000 # 3 
9888 1 3 -0.325600 30.748999 5.032000 45.041000 # 3 
9889 1 4 0.651200 36.090000 18.045000 24.059999 # 4 
9890 1 3 -0.325600 35.416000 19.028999 24.146999 # 3 
9891 1 3 -0.325600 36.764000 17.062000 23.973000 # 3 
9892 1 4 0.651200 42.104996 12.030000 30.074999 # 4 
9893 1 3 -0.325600 41.431000 13.014000 30.162001 # 3 
9894 1 3 -0.325600 42.779003 11.047000 29.988001 # 3 
9895 1 4 0.651200 39.098000 12.030000 24.059999 # 4 
9896 1 3 -0.325600 38.424000 13.014000 24.146999 # 3 
9897 1 3 -0.325600 39.771999 11.047000 23.973000 # 3 
9898 1 4 0.651200 45.112999 12.030000 24.059999 # 4 
9899 1 3 -0.325600 44.439003 13.014000 24.146999 # 3 
9900 1 3 -0.325600 45.787003 11.047000 23.973000 # 3 
9901 1 4 0.651200 36.090000 15.022000 30.074999 # 4 
9902 1 3 -0.325600 36.764000 14.039001 29.988001 # 3 
9903 1 3 -0.325600 35.416000 16.006001 30.162001 # 3 
9904 1 4 0.651200 36.090000 21.068001 30.074999 # 4 
9905 1 3 -0.325600 35.416000 22.052000 30.162001 # 3 
9906 1 3 -0.325600 36.764000 20.085001 29.988001 # 3 
9907 1 4 0.651200 42.104996 18.045000 27.052000 # 4 
9908 1 3 -0.325600 41.431000 19.028999 27.139000 # 3 
9909 1 3 -0.325600 42.779003 17.062000 26.965000 # 3 
9910 1 4 0.651200 42.104996 18.045000 33.098000 # 4 
9911 1 3 -0.325600 41.431000 19.028999 33.185001 # 3 
9912 1 3 -0.325600 42.779003 17.062000 33.011002 # 3 
9913 1 4 0.651200 36.090000 6.015000 36.090000 # 4 
9914 1 3 -0.325600 35.416000 6.999001 36.177002 # 3 
9915 1 3 -0.325600 36.764000 5.032000 36.003002 # 3 
9916 1 4 0.651200 42.104996 0.000000 42.104996 # 4 
9917 1 3 -0.325600 41.431000 0.984000 42.192001 # 3 
9918 1 3 -0.325600 42.779003 -0.983000 42.017998 # 3 
9919 1 4 0.651200 39.098000 0.000000 36.090000 # 4 
9920 1 3 -0.325600 38.424000 0.984000 36.177002 # 3 
9921 1 3 -0.325600 39.771999 -0.983000 36.003002 # 3 
9922 1 4 0.651200 45.112999 0.000000 36.090000 # 4 
9923 1 3 -0.325600 44.439003 0.984000 36.177002 # 3 
9924 1 3 -0.325600 45.787003 -0.983000 36.003002 # 3 
9925 1 4 0.651200 36.090000 2.992000 42.104996 # 4 
9926 1 3 -0.325600 36.764000 2.009000 42.017998 # 3 
9927 1 3 -0.325600 35.416000 3.976000 42.192001 # 3 
9928 1 4 0.651200 36.090000 9.038000 42.104996 # 4 
9929 1 3 -0.325600 35.416000 10.022000 42.192001 # 3 
9930 1 3 -0.325600 36.764000 8.055000 42.017998 # 3 
9931 1 4 0.651200 42.104996 6.015000 39.082001 # 4 
9932 1 3 -0.325600 41.431000 6.999001 39.168999 # 3 
9933 1 3 -0.325600 42.779003 5.032000 38.994999 # 3 
9934 1 4 0.651200 42.104996 6.015000 45.128002 # 4 
9935 1 3 -0.325600 41.431000 6.999001 45.215000 # 3 
9936 1 3 -0.325600 42.779003 5.032000 45.041000 # 3 
9937 1 4 0.651200 24.059999 18.045000 36.090000 # 4 
9938 1 3 -0.325600 23.386000 19.028999 36.177002 # 3 
9939 1 3 -0.325600 24.734001 17.062000 36.003002 # 3 
9940 1 4 0.651200 30.074999 12.030000 42.104996 # 4 
9941 1 3 -0.325600 29.400999 13.014000 42.192001 # 3 
9942 1 3 -0.325600 30.748999 11.047000 42.017998 # 3 
9943 1 4 0.651200 27.068001 12.030000 36.090000 # 4 
9944 1 3 -0.325600 26.394001 13.014000 36.177002 # 3 
9945 1 3 -0.325600 27.742001 11.047000 36.003002 # 3 
9946 1 4 0.651200 33.083000 12.030000 36.090000 # 4 
9947 1 3 -0.325600 32.409000 13.014000 36.177002 # 3 
9948 1 3 -0.325600 33.757000 11.047000 36.003002 # 3 
9949 1 4 0.651200 24.059999 15.022000 42.104996 # 4 
9950 1 3 -0.325600 24.734001 14.039001 42.017998 # 3 
9951 1 3 -0.325600 23.386000 16.006001 42.192001 # 3 
9952 1 4 0.651200 24.059999 21.068001 42.104996 # 4 
9953 1 3 -0.325600 23.386000 22.052000 42.192001 # 3 
9954 1 3 -0.325600 24.734001 20.085001 42.017998 # 3 
9955 1 4 0.651200 30.074999 18.045000 39.082001 # 4 
9956 1 3 -0.325600 29.400999 19.028999 39.168999 # 3 
9957 1 3 -0.325600 30.748999 17.062000 38.994999 # 3 
9958 1 4 0.651200 30.074999 18.045000 45.128002 # 4 
9959 1 3 -0.325600 29.400999 19.028999 45.215000 # 3 
9960 1 3 -0.325600 30.748999 17.062000 45.041000 # 3 
9961 1 4 0.651200 36.090000 18.045000 36.090000 # 4 
9962 1 3 -0.325600 35.416000 19.028999 36.177002 # 3 
9963 1 3 -0.325600 36.764000 17.062000 36.003002 # 3 
9964 1 4 0.651200 42.104996 12.030000 42.104996 # 4 
9965 1 3 -0.325600 41.431000 13.014000 42.192001 # 3 
9966 1 3 -0.325600 42.779003 11.047000 42.017998 # 3 
9967 1 4 0.651200 39.098000 12.030000 36.090000 # 4 
9968 1 3 -0.325600 38.424000 13.014000 36.177002 # 3 
9969 1 3 -0.325600 39.771999 11.047000 36.003002 # 3 
9970 1 4 0.651200 45.112999 12.030000 36.090000 # 4 
9971 1 3 -0.325600 44.439003 13.014000 36.177002 # 3 
9972 1 3 -0.325600 45.787003 11.047000 36.003002 # 3 
9973 1 4 0.651200 36.090000 15.022000 42.104996 # 4 
9974 1 3 -0.325600 36.764000 14.039001 42.017998 # 3 
9975 1 3 -0.325600 35.416000 16.006001 42.192001 # 3 
9976 1 4 0.651200 36.090000 21.068001 42.104996 # 4 
9977 1 3 -0.325600 35.416000 22.052000 42.192001 # 3 
9978 1 3 -0.325600 36.764000 20.085001 42.017998 # 3 
9979 1 4 0.651200 42.104996 18.045000 39.082001 # 4 
9980 1 3 -0.325600 41.431000 19.028999 39.168999 # 3 
9981 1 3 -0.325600 42.779003 17.062000 38.994999 # 3 
9982 1 4 0.651200 42.104996 18.045000 45.128002 # 4 
9983 1 3 -0.325600 41.431000 19.028999 45.215000 # 3 
9984 1 3 -0.325600 42.779003 17.062000 45.041000 # 3 
9985 1 4 0.651200 12.030000 30.074999 24.059999 # 4 
9986 1 3 -0.325600 11.356000 31.059000 24.146999 # 3 
9987 1 3 -0.325600 12.704000 29.091999 23.973000 # 3 
9988 1 4 0.651200 18.045000 24.059999 30.074999 # 4 
9989 1 3 -0.325600 17.371000 25.044001 30.162001 # 3 
9990 1 3 -0.325600 18.719000 23.077000 29.988001 # 3 
9991 1 4 0.651200 15.038000 24.059999 24.059999 # 4 
9992 1 3 -0.325600 14.364000 25.044001 24.146999 # 3 
9993 1 3 -0.325600 15.712000 23.077000 23.973000 # 3 
9994 1 4 0.651200 21.052999 24.059999 24.059999 # 4 
9995 1 3 -0.325600 20.379000 25.044001 24.146999 # 3 
9996 1 3 -0.325600 21.726999 23.077000 23.973000 # 3 
9997 1 4 0.651200 12.030000 27.052000 30.074999 # 4 
9998 1 3 -0.325600 12.704000 26.069000 29.988001 # 3 
9999 1 3 -0.325600 11.356000 28.036001 30.162001 # 3 
10000 1 4 0.651200 12.030000 33.098000 30.074999 # 4 
10001 1 3 -0.325600 11.356000 34.082001 30.162001 # 3 
10002 1 3 -0.325600 12.704000 32.114998 29.988001 # 3 
10003 1 4 0.651200 18.045000 30.074999 27.052000 # 4 
10004 1 3 -0.325600 17.371000 31.059000 27.139000 # 3 
10005 1 3 -0.325600 18.719000 29.091999 26.965000 # 3 
10006 1 4 0.651200 18.045000 30.074999 33.098000 # 4 
10007 1 3 -0.325600 17.371000 31.059000 33.185001 # 3 
10008 1 3 -0.325600 18.719000 29.091999 33.011002 # 3 
10009 1 4 0.651200 0.000000 42.104996 24.059999 # 4 
10010 1 3 -0.325600 -0.674000 43.088997 24.146999 # 3 
10011 1 3 -0.325600 0.674000 41.121998 23.973000 # 3 
10012 1 4 0.651200 6.015000 36.090000 30.074999 # 4 
10013 1 3 -0.325600 5.341000 37.074001 30.162001 # 3 
10014 1 3 -0.325600 6.689000 35.106998 29.988001 # 3 
10015 1 4 0.651200 3.008000 36.090000 24.059999 # 4 
10016 1 3 -0.325600 2.334000 37.074001 24.146999 # 3 
10017 1 3 -0.325600 3.682000 35.106998 23.973000 # 3 
10018 1 4 0.651200 9.023000 36.090000 24.059999 # 4 
10019 1 3 -0.325600 8.349000 37.074001 24.146999 # 3 
10020 1 3 -0.325600 9.697000 35.106998 23.973000 # 3 
10021 1 4 0.651200 0.000000 39.082001 30.074999 # 4 
10022 1 3 -0.325600 0.674000 38.098999 29.988001 # 3 
10023 1 3 -0.325600 -0.674000 40.065998 30.162001 # 3 
10024 1 4 0.651200 0.000000 45.128002 30.074999 # 4 
10025 1 3 -0.325600 -0.674000 46.112000 30.162001 # 3 
10026 1 3 -0.325600 0.674000 44.145004 29.988001 # 3 
10027 1 4 0.651200 6.015000 42.104996 27.052000 # 4 
10028 1 3 -0.325600 5.341000 43.088997 27.139000 # 3 
10029 1 3 -0.325600 6.689000 41.121998 26.965000 # 3 
10030 1 4 0.651200 6.015000 42.104996 33.098000 # 4 
10031 1 3 -0.325600 5.341000 43.088997 33.185001 # 3 
10032 1 3 -0.325600 6.689000 41.121998 33.011002 # 3 
10033 1 4 0.651200 0.000000 30.074999 24.059999 # 4 
10034 1 3 -0.325600 -0.674000 31.059000 24.146999 # 3 
10035 1 3 -0.325600 0.674000 29.091999 23.973000 # 3 
10036 1 4 0.651200 6.015000 24.059999 30.074999 # 4 
10037 1 3 -0.325600 5.341000 25.044001 30.162001 # 3 
10038 1 3 -0.325600 6.689000 23.077000 29.988001 # 3 
10039 1 4 0.651200 3.008000 24.059999 24.059999 # 4 
10040 1 3 -0.325600 2.334000 25.044001 24.146999 # 3 
10041 1 3 -0.325600 3.682000 23.077000 23.973000 # 3 
10042 1 4 0.651200 9.023000 24.059999 24.059999 # 4 
10043 1 3 -0.325600 8.349000 25.044001 24.146999 # 3 
10044 1 3 -0.325600 9.697000 23.077000 23.973000 # 3 
10045 1 4 0.651200 0.000000 27.052000 30.074999 # 4 
10046 1 3 -0.325600 0.674000 26.069000 29.988001 # 3 
10047 1 3 -0.325600 -0.674000 28.036001 30.162001 # 3 
10048 1 4 0.651200 0.000000 33.098000 30.074999 # 4 
10049 1 3 -0.325600 -0.674000 34.082001 30.162001 # 3 
10050 1 3 -0.325600 0.674000 32.114998 29.988001 # 3 
10051 1 4 0.651200 6.015000 30.074999 27.052000 # 4 
10052 1 3 -0.325600 5.341000 31.059000 27.139000 # 3 
10053 1 3 -0.325600 6.689000 29.091999 26.965000 # 3 
10054 1 4 0.651200 6.015000 30.074999 33.098000 # 4 
10055 1 3 -0.325600 5.341000 31.059000 33.185001 # 3 
10056 1 3 -0.325600 6.689000 29.091999 33.011002 # 3 
10057 1 4 0.651200 0.000000 30.074999 36.090000 # 4 
10058 1 3 -0.325600 -0.674000 31.059000 36.177002 # 3 
10059 1 3 -0.325600 0.674000 29.091999 36.003002 # 3 
10060 1 4 0.651200 6.015000 24.059999 42.104996 # 4 
10061 1 3 -0.325600 5.341000 25.044001 42.192001 # 3 
10062 1 3 -0.325600 6.689000 23.077000 42.017998 # 3 
10063 1 4 0.651200 3.008000 24.059999 36.090000 # 4 
10064 1 3 -0.325600 2.334000 25.044001 36.177002 # 3 
10065 1 3 -0.325600 3.682000 23.077000 36.003002 # 3 
10066 1 4 0.651200 9.023000 24.059999 36.090000 # 4 
10067 1 3 -0.325600 8.349000 25.044001 36.177002 # 3 
10068 1 3 -0.325600 9.697000 23.077000 36.003002 # 3 
10069 1 4 0.651200 0.000000 27.052000 42.104996 # 4 
10070 1 3 -0.325600 0.674000 26.069000 42.017998 # 3 
10071 1 3 -0.325600 -0.674000 28.036001 42.192001 # 3 
10072 1 4 0.651200 0.000000 33.098000 42.104996 # 4 
10073 1 3 -0.325600 -0.674000 34.082001 42.192001 # 3 
10074 1 3 -0.325600 0.674000 32.114998 42.017998 # 3 
10075 1 4 0.651200 6.015000 30.074999 39.082001 # 4 
10076 1 3 -0.325600 5.341000 31.059000 39.168999 # 3 
10077 1 3 -0.325600 6.689000 29.091999 38.994999 # 3 
10078 1 4 0.651200 6.015000 30.074999 45.128002 # 4 
10079 1 3 -0.325600 5.341000 31.059000 45.215000 # 3 
10080 1 3 -0.325600 6.689000 29.091999 45.041000 # 3 
10081 1 4 0.651200 12.030000 42.104996 24.059999 # 4 
10082 1 3 -0.325600 11.356000 43.088997 24.146999 # 3 
10083 1 3 -0.325600 12.704000 41.121998 23.973000 # 3 
10084 1 4 0.651200 18.045000 36.090000 30.074999 # 4 
10085 1 3 -0.325600 17.371000 37.074001 30.162001 # 3 
10086 1 3 -0.325600 18.719000 35.106998 29.988001 # 3 
10087 1 4 0.651200 15.038000 36.090000 24.059999 # 4 
10088 1 3 -0.325600 14.364000 37.074001 24.146999 # 3 
10089 1 3 -0.325600 15.712000 35.106998 23.973000 # 3 
10090 1 4 0.651200 21.052999 36.090000 24.059999 # 4 
10091 1 3 -0.325600 20.379000 37.074001 24.146999 # 3 
10092 1 3 -0.325600 21.726999 35.106998 23.973000 # 3 
10093 1 4 0.651200 12.030000 39.082001 30.074999 # 4 
10094 1 3 -0.325600 12.704000 38.098999 29.988001 # 3 
10095 1 3 -0.325600 11.356000 40.065998 30.162001 # 3 
10096 1 4 0.651200 12.030000 45.128002 30.074999 # 4 
10097 1 3 -0.325600 11.356000 46.112000 30.162001 # 3 
10098 1 3 -0.325600 12.704000 44.145004 29.988001 # 3 
10099 1 4 0.651200 18.045000 42.104996 27.052000 # 4 
10100 1 3 -0.325600 17.371000 43.088997 27.139000 # 3 
10101 1 3 -0.325600 18.719000 41.121998 26.965000 # 3 
10102 1 4 0.651200 18.045000 42.104996 33.098000 # 4 
10103 1 3 -0.325600 17.371000 43.088997 33.185001 # 3 
10104 1 3 -0.325600 18.719000 41.121998 33.011002 # 3 
10105 1 4 0.651200 12.030000 30.074999 36.090000 # 4 
10106 1 3 -0.325600 11.356000 31.059000 36.177002 # 3 
10107 1 3 -0.325600 12.704000 29.091999 36.003002 # 3 
10108 1 4 0.651200 18.045000 24.059999 42.104996 # 4 
10109 1 3 -0.325600 17.371000 25.044001 42.192001 # 3 
10110 1 3 -0.325600 18.719000 23.077000 42.017998 # 3 
10111 1 4 0.651200 15.038000 24.059999 36.090000 # 4 
10112 1 3 -0.325600 14.364000 25.044001 36.177002 # 3 
10113 1 3 -0.325600 15.712000 23.077000 36.003002 # 3 
10114 1 4 0.651200 21.052999 24.059999 36.090000 # 4 
10115 1 3 -0.325600 20.379000 25.044001 36.177002 # 3 
10116 1 3 -0.325600 21.726999 23.077000 36.003002 # 3 
10117 1 4 0.651200 12.030000 27.052000 42.104996 # 4 
10118 1 3 -0.325600 12.704000 26.069000 42.017998 # 3 
10119 1 3 -0.325600 11.356000 28.036001 42.192001 # 3 
10120 1 4 0.651200 12.030000 33.098000 42.104996 # 4 
10121 1 3 -0.325600 11.356000 34.082001 42.192001 # 3 
10122 1 3 -0.325600 12.704000 32.114998 42.017998 # 3 
10123 1 4 0.651200 18.045000 30.074999 39.082001 # 4 
10124 1 3 -0.325600 17.371000 31.059000 39.168999 # 3 
10125 1 3 -0.325600 18.719000 29.091999 38.994999 # 3 
10126 1 4 0.651200 18.045000 30.074999 45.128002 # 4 
10127 1 3 -0.325600 17.371000 31.059000 45.215000 # 3 
10128 1 3 -0.325600 18.719000 29.091999 45.041000 # 3 
10129 1 4 0.651200 0.000000 42.104996 36.090000 # 4 
10130 1 3 -0.325600 -0.674000 43.088997 36.177002 # 3 
10131 1 3 -0.325600 0.674000 41.121998 36.003002 # 3 
10132 1 4 0.651200 6.015000 36.090000 42.104996 # 4 
10133 1 3 -0.325600 5.341000 37.074001 42.192001 # 3 
10134 1 3 -0.325600 6.689000 35.106998 42.017998 # 3 
10135 1 4 0.651200 3.008000 36.090000 36.090000 # 4 
10136 1 3 -0.325600 2.334000 37.074001 36.177002 # 3 
10137 1 3 -0.325600 3.682000 35.106998 36.003002 # 3 
10138 1 4 0.651200 9.023000 36.090000 36.090000 # 4 
10139 1 3 -0.325600 8.349000 37.074001 36.177002 # 3 
10140 1 3 -0.325600 9.697000 35.106998 36.003002 # 3 
10141 1 4 0.651200 0.000000 39.082001 42.104996 # 4 
10142 1 3 -0.325600 0.674000 38.098999 42.017998 # 3 
10143 1 3 -0.325600 -0.674000 40.065998 42.192001 # 3 
10144 1 4 0.651200 0.000000 45.128002 42.104996 # 4 
10145 1 3 -0.325600 -0.674000 46.112000 42.192001 # 3 
10146 1 3 -0.325600 0.674000 44.145004 42.017998 # 3 
10147 1 4 0.651200 6.015000 42.104996 39.082001 # 4 
10148 1 3 -0.325600 5.341000 43.088997 39.168999 # 3 
10149 1 3 -0.325600 6.689000 41.121998 38.994999 # 3 
10150 1 4 0.651200 6.015000 42.104996 45.128002 # 4 
10151 1 3 -0.325600 5.341000 43.088997 45.215000 # 3 
10152 1 3 -0.325600 6.689000 41.121998 45.041000 # 3 
10153 1 4 0.651200 12.030000 42.104996 36.090000 # 4 
10154 1 3 -0.325600 11.356000 43.088997 36.177002 # 3 
10155 1 3 -0.325600 12.704000 41.121998 36.003002 # 3 
10156 1 4 0.651200 18.045000 36.090000 42.104996 # 4 
10157 1 3 -0.325600 17.371000 37.074001 42.192001 # 3 
10158 1 3 -0.325600 18.719000 35.106998 42.017998 # 3 
10159 1 4 0.651200 15.038000 36.090000 36.090000 # 4 
10160 1 3 -0.325600 14.364000 37.074001 36.177002 # 3 
10161 1 3 -0.325600 15.712000 35.106998 36.003002 # 3 
10162 1 4 0.651200 21.052999 36.090000 36.090000 # 4 
10163 1 3 -0.325600 20.379000 37.074001 36.177002 # 3 
10164 1 3 -0.325600 21.726999 35.106998 36.003002 # 3 
10165 1 4 0.651200 12.030000 39.082001 42.104996 # 4 
10166 1 3 -0.325600 12.704000 38.098999 42.017998 # 3 
10167 1 3 -0.325600 11.356000 40.065998 42.192001 # 3 
10168 1 4 0.651200 12.030000 45.128002 42.104996 # 4 
10169 1 3 -0.325600 11.356000 46.112000 42.192001 # 3 
10170 1 3 -0.325600 12.704000 44.145004 42.017998 # 3 
10171 1 4 0.651200 18.045000 42.104996 39.082001 # 4 
10172 1 3 -0.325600 17.371000 43.088997 39.168999 # 3 
10173 1 3 -0.325600 18.719000 41.121998 38.994999 # 3 
10174 1 4 0.651200 18.045000 42.104996 45.128002 # 4 
10175 1 3 -0.325600 17.371000 43.088997 45.215000 # 3 
10176 1 3 -0.325600 18.719000 41.121998 45.041000 # 3 
10177 1 4 0.651200 36.090000 30.074999 24.059999 # 4 
10178 1 3 -0.325600 35.416000 31.059000 24.146999 # 3 
10179 1 3 -0.325600 36.764000 29.091999 23.973000 # 3 
10180 1 4 0.651200 42.104996 24.059999 30.074999 # 4 
10181 1 3 -0.325600 41.431000 25.044001 30.162001 # 3 
10182 1 3 -0.325600 42.779003 23.077000 29.988001 # 3 
10183 1 4 0.651200 39.098000 24.059999 24.059999 # 4 
10184 1 3 -0.325600 38.424000 25.044001 24.146999 # 3 
10185 1 3 -0.325600 39.771999 23.077000 23.973000 # 3 
10186 1 4 0.651200 45.112999 24.059999 24.059999 # 4 
10187 1 3 -0.325600 44.439003 25.044001 24.146999 # 3 
10188 1 3 -0.325600 45.787003 23.077000 23.973000 # 3 
10189 1 4 0.651200 36.090000 27.052000 30.074999 # 4 
10190 1 3 -0.325600 36.764000 26.069000 29.988001 # 3 
10191 1 3 -0.325600 35.416000 28.036001 30.162001 # 3 
10192 1 4 0.651200 36.090000 33.098000 30.074999 # 4 
10193 1 3 -0.325600 35.416000 34.082001 30.162001 # 3 
10194 1 3 -0.325600 36.764000 32.114998 29.988001 # 3 
10195 1 4 0.651200 42.104996 30.074999 27.052000 # 4 
10196 1 3 -0.325600 41.431000 31.059000 27.139000 # 3 
10197 1 3 -0.325600 42.779003 29.091999 26.965000 # 3 
10198 1 4 0.651200 42.104996 30.074999 33.098000 # 4 
10199 1 3 -0.325600 41.431000 31.059000 33.185001 # 3 
10200 1 3 -0.325600 42.779003 29.091999 33.011002 # 3 
10201 1 4 0.651200 24.059999 42.104996 24.059999 # 4 
10202 1 3 -0.325600 23.386000 43.088997 24.146999 # 3 
10203 1 3 -0.325600 24.734001 41.121998 23.973000 # 3 
10204 1 4 0.651200 30.074999 36.090000 30.074999 # 4 
10205 1 3 -0.325600 29.400999 37.074001 30.162001 # 3 
10206 1 3 -0.325600 30.748999 35.106998 29.988001 # 3 
10207 1 4 0.651200 27.068001 36.090000 24.059999 # 4 
10208 1 3 -0.325600 26.394001 37.074001 24.146999 # 3 
10209 1 3 -0.325600 27.742001 35.106998 23.973000 # 3 
10210 1 4 0.651200 33.083000 36.090000 24.059999 # 4 
10211 1 3 -0.325600 32.409000 37.074001 24.146999 # 3 
10212 1 3 -0.325600 33.757000 35.106998 23.973000 # 3 
10213 1 4 0.651200 24.059999 39.082001 30.074999 # 4 
10214 1 3 -0.325600 24.734001 38.098999 29.988001 # 3 
10215 1 3 -0.325600 23.386000 40.065998 30.162001 # 3 
10216 1 4 0.651200 24.059999 45.128002 30.074999 # 4 
10217 1 3 -0.325600 23.386000 46.112000 30.162001 # 3 
10218 1 3 -0.325600 24.734001 44.145004 29.988001 # 3 
10219 1 4 0.651200 30.074999 42.104996 27.052000 # 4 
10220 1 3 -0.325600 29.400999 43.088997 27.139000 # 3 
10221 1 3 -0.325600 30.748999 41.121998 26.965000 # 3 
10222 1 4 0.651200 30.074999 42.104996 33.098000 # 4 
10223 1 3 -0.325600 29.400999 43.088997 33.185001 # 3 
10224 1 3 -0.325600 30.748999 41.121998 33.011002 # 3 
10225 1 4 0.651200 24.059999 30.074999 24.059999 # 4 
10226 1 3 -0.325600 23.386000 31.059000 24.146999 # 3 
10227 1 3 -0.325600 24.734001 29.091999 23.973000 # 3 
10228 1 4 0.651200 30.074999 24.059999 30.074999 # 4 
10229 1 3 -0.325600 29.400999 25.044001 30.162001 # 3 
10230 1 3 -0.325600 30.748999 23.077000 29.988001 # 3 
10231 1 4 0.651200 27.068001 24.059999 24.059999 # 4 
10232 1 3 -0.325600 26.394001 25.044001 24.146999 # 3 
10233 1 3 -0.325600 27.742001 23.077000 23.973000 # 3 
10234 1 4 0.651200 33.083000 24.059999 24.059999 # 4 
10235 1 3 -0.325600 32.409000 25.044001 24.146999 # 3 
10236 1 3 -0.325600 33.757000 23.077000 23.973000 # 3 
10237 1 4 0.651200 24.059999 27.052000 30.074999 # 4 
10238 1 3 -0.325600 24.734001 26.069000 29.988001 # 3 
10239 1 3 -0.325600 23.386000 28.036001 30.162001 # 3 
10240 1 4 0.651200 24.059999 33.098000 30.074999 # 4 
10241 1 3 -0.325600 23.386000 34.082001 30.162001 # 3 
10242 1 3 -0.325600 24.734001 32.114998 29.988001 # 3 
10243 1 4 0.651200 30.074999 30.074999 27.052000 # 4 
10244 1 3 -0.325600 29.400999 31.059000 27.139000 # 3 
10245 1 3 -0.325600 30.748999 29.091999 26.965000 # 3 
10246 1 4 0.651200 30.074999 30.074999 33.098000 # 4 
10247 1 3 -0.325600 29.400999 31.059000 33.185001 # 3 
10248 1 3 -0.325600 30.748999 29.091999 33.011002 # 3 
10249 1 4 0.651200 24.059999 30.074999 36.090000 # 4 
10250 1 3 -0.325600 23.386000 31.059000 36.177002 # 3 
10251 1 3 -0.325600 24.734001 29.091999 36.003002 # 3 
10252 1 4 0.651200 30.074999 24.059999 42.104996 # 4 
10253 1 3 -0.325600 29.400999 25.044001 42.192001 # 3 
10254 1 3 -0.325600 30.748999 23.077000 42.017998 # 3 
10255 1 4 0.651200 27.068001 24.059999 36.090000 # 4 
10256 1 3 -0.325600 26.394001 25.044001 36.177002 # 3 
10257 1 3 -0.325600 27.742001 23.077000 36.003002 # 3 
10258 1 4 0.651200 33.083000 24.059999 36.090000 # 4 
10259 1 3 -0.325600 32.409000 25.044001 36.177002 # 3 
10260 1 3 -0.325600 33.757000 23.077000 36.003002 # 3 
10261 1 4 0.651200 24.059999 27.052000 42.104996 # 4 
10262 1 3 -0.325600 24.734001 26.069000 42.017998 # 3 
10263 1 3 -0.325600 23.386000 28.036001 42.192001 # 3 
10264 1 4 0.651200 24.059999 33.098000 42.104996 # 4 
10265 1 3 -0.325600 23.386000 34.082001 42.192001 # 3 
10266 1 3 -0.325600 24.734001 32.114998 42.017998 # 3 
10267 1 4 0.651200 30.074999 30.074999 39.082001 # 4 
10268 1 3 -0.325600 29.400999 31.059000 39.168999 # 3 
10269 1 3 -0.325600 30.748999 29.091999 38.994999 # 3 
10270 1 4 0.651200 30.074999 30.074999 45.128002 # 4 
10271 1 3 -0.325600 29.400999 31.059000 45.215000 # 3 
10272 1 3 -0.325600 30.748999 29.091999 45.041000 # 3 
10273 1 4 0.651200 36.090000 42.104996 24.059999 # 4 
10274 1 3 -0.325600 35.416000 43.088997 24.146999 # 3 
10275 1 3 -0.325600 36.764000 41.121998 23.973000 # 3 
10276 1 4 0.651200 42.104996 36.090000 30.074999 # 4 
10277 1 3 -0.325600 41.431000 37.074001 30.162001 # 3 
10278 1 3 -0.325600 42.779003 35.106998 29.988001 # 3 
10279 1 4 0.651200 39.098000 36.090000 24.059999 # 4 
10280 1 3 -0.325600 38.424000 37.074001 24.146999 # 3 
10281 1 3 -0.325600 39.771999 35.106998 23.973000 # 3 
10282 1 4 0.651200 45.112999 36.090000 24.059999 # 4 
10283 1 3 -0.325600 44.439003 37.074001 24.146999 # 3 
10284 1 3 -0.325600 45.787003 35.106998 23.973000 # 3 
10285 1 4 0.651200 36.090000 39.082001 30.074999 # 4 
10286 1 3 -0.325600 36.764000 38.098999 29.988001 # 3 
10287 1 3 -0.325600 35.416000 40.065998 30.162001 # 3 
10288 1 4 0.651200 36.090000 45.128002 30.074999 # 4 
10289 1 3 -0.325600 35.416000 46.112000 30.162001 # 3 
10290 1 3 -0.325600 36.764000 44.145004 29.988001 # 3 
10291 1 4 0.651200 42.104996 42.104996 27.052000 # 4 
10292 1 3 -0.325600 41.431000 43.088997 27.139000 # 3 
10293 1 3 -0.325600 42.779003 41.121998 26.965000 # 3 
10294 1 4 0.651200 42.104996 42.104996 33.098000 # 4 
10295 1 3 -0.325600 41.431000 43.088997 33.185001 # 3 
10296 1 3 -0.325600 42.779003 41.121998 33.011002 # 3 
10297 1 4 0.651200 36.090000 30.074999 36.090000 # 4 
10298 1 3 -0.325600 35.416000 31.059000 36.177002 # 3 
10299 1 3 -0.325600 36.764000 29.091999 36.003002 # 3 
10300 1 4 0.651200 42.104996 24.059999 42.104996 # 4 
10301 1 3 -0.325600 41.431000 25.044001 42.192001 # 3 
10302 1 3 -0.325600 42.779003 23.077000 42.017998 # 3 
10303 1 4 0.651200 39.098000 24.059999 36.090000 # 4 
10304 1 3 -0.325600 38.424000 25.044001 36.177002 # 3 
10305 1 3 -0.325600 39.771999 23.077000 36.003002 # 3 
10306 1 4 0.651200 45.112999 24.059999 36.090000 # 4 
10307 1 3 -0.325600 44.439003 25.044001 36.177002 # 3 
10308 1 3 -0.325600 45.787003 23.077000 36.003002 # 3 
10309 1 4 0.651200 36.090000 27.052000 42.104996 # 4 
10310 1 3 -0.325600 36.764000 26.069000 42.017998 # 3 
10311 1 3 -0.325600 35.416000 28.036001 42.192001 # 3 
10312 1 4 0.651200 36.090000 33.098000 42.104996 # 4 
10313 1 3 -0.325600 35.416000 34.082001 42.192001 # 3 
10314 1 3 -0.325600 36.764000 32.114998 42.017998 # 3 
10315 1 4 0.651200 42.104996 30.074999 39.082001 # 4 
10316 1 3 -0.325600 41.431000 31.059000 39.168999 # 3 
10317 1 3 -0.325600 42.779003 29.091999 38.994999 # 3 
10318 1 4 0.651200 42.104996 30.074999 45.128002 # 4 
10319 1 3 -0.325600 41.431000 31.059000 45.215000 # 3 
10320 1 3 -0.325600 42.779003 29.091999 45.041000 # 3 
10321 1 4 0.651200 24.059999 42.104996 36.090000 # 4 
10322 1 3 -0.325600 23.386000 43.088997 36.177002 # 3 
10323 1 3 -0.325600 24.734001 41.121998 36.003002 # 3 
10324 1 4 0.651200 30.074999 36.090000 42.104996 # 4 
10325 1 3 -0.325600 29.400999 37.074001 42.192001 # 3 
10326 1 3 -0.325600 30.748999 35.106998 42.017998 # 3 
10327 1 4 0.651200 27.068001 36.090000 36.090000 # 4 
10328 1 3 -0.325600 26.394001 37.074001 36.177002 # 3 
10329 1 3 -0.325600 27.742001 35.106998 36.003002 # 3 
10330 1 4 0.651200 33.083000 36.090000 36.090000 # 4 
10331 1 3 -0.325600 32.409000 37.074001 36.177002 # 3 
10332 1 3 -0.325600 33.757000 35.106998 36.003002 # 3 
10333 1 4 0.651200 24.059999 39.082001 42.104996 # 4 
10334 1 3 -0.325600 24.734001 38.098999 42.017998 # 3 
10335 1 3 -0.325600 23.386000 40.065998 42.192001 # 3 
10336 1 4 0.651200 24.059999 45.128002 42.104996 # 4 
10337 1 3 -0.325600 23.386000 46.112000 42.192001 # 3 
10338 1 3 -0.325600 24.734001 44.145004 42.017998 # 3 
10339 1 4 0.651200 30.074999 42.104996 39.082001 # 4 
10340 1 3 -0.325600 29.400999 43.088997 39.168999 # 3 
10341 1 3 -0.325600 30.748999 41.121998 38.994999 # 3 
10342 1 4 0.651200 30.074999 42.104996 45.128002 # 4 
10343 1 3 -0.325600 29.400999 43.088997 45.215000 # 3 
10344 1 3 -0.325600 30.748999 41.121998 45.041000 # 3 
10345 1 4 0.651200 36.090000 42.104996 36.090000 # 4 
10346 1 3 -0.325600 35.416000 43.088997 36.177002 # 3 
10347 1 3 -0.325600 36.764000 41.121998 36.003002 # 3 
10348 1 4 0.651200 42.104996 36.090000 42.104996 # 4 
10349 1 3 -0.325600 41.431000 37.074001 42.192001 # 3 
10350 1 3 -0.325600 42.779003 35.106998 42.017998 # 3 
10351 1 4 0.651200 39.098000 36.090000 36.090000 # 4 
10352 1 3 -0.325600 38.424000 37.074001 36.177002 # 3 
10353 1 3 -0.325600 39.771999 35.106998 36.003002 # 3 
10354 1 4 0.651200 45.112999 36.090000 36.090000 # 4 
10355 1 3 -0.325600 44.439003 37.074001 36.177002 # 3 
10356 1 3 -0.325600 45.787003 35.106998 36.003002 # 3 
10357 1 4 0.651200 36.090000 39.082001 42.104996 # 4 
10358 1 3 -0.325600 36.764000 38.098999 42.017998 # 3 
10359 1 3 -0.325600 35.416000 40.065998 42.192001 # 3 
10360 1 4 0.651200 36.090000 45.128002 42.104996 # 4 
10361 1 3 -0.325600 35.416000 46.112000 42.192001 # 3 
10362 1 3 -0.325600 36.764000 44.145004 42.017998 # 3 
10363 1 4 0.651200 42.104996 42.104996 39.082001 # 4 
10364 1 3 -0.325600 41.431000 43.088997 39.168999 # 3 
10365 1 3 -0.325600 42.779003 41.121998 38.994999 # 3 
10366 1 4 0.651200 42.104996 42.104996 45.128002 # 4 
10367 1 3 -0.325600 41.431000 43.088997 45.215000 # 3 
10368 1 3 -0.325600 42.779003 41.121998 45.041000 # 3 

 Bonds

1 1 1 2
2 1 1 3
3 1 4 5
4 1 4 6
5 1 7 8
6 1 7 9
7 1 10 11
8 1 10 12
9 1 13 14
10 1 13 15
11 1 16 17
12 1 16 18
13 1 19 20
14 1 19 21
15 1 22 23
16 1 22 24
17 1 25 26
18 1 25 27
19 1 28 29
20 1 28 30
21 1 31 32
22 1 31 33
23 1 34 35
24 1 34 36
25 1 37 38
26 1 37 39
27 1 40 41
28 1 40 42
29 1 43 44
30 1 43 45
31 1 46 47
32 1 46 48
33 1 49 50
34 1 49 51
35 1 52 53
36 1 52 54
37 1 55 56
38 1 55 57
39 1 58 59
40 1 58 60
41 1 61 62
42 1 61 63
43 1 64 65
44 1 64 66
45 1 67 68
46 1 67 69
47 1 70 71
48 1 70 72
49 1 73 74
50 1 73 75
51 1 76 77
52 1 76 78
53 1 79 80
54 1 79 81
55 1 82 83
56 1 82 84
57 1 85 86
58 1 85 87
59 1 88 89
60 1 88 90
61 1 91 92
62 1 91 93
63 1 94 95
64 1 94 96
65 1 97 98
66 1 97 99
67 1 100 101
68 1 100 102
69 1 103 104
70 1 103 105
71 1 106 107
72 1 106 108
73 1 109 110
74 1 109 111
75 1 112 113
76 1 112 114
77 1 115 116
78 1 115 117
79 1 118 119
80 1 118 120
81 1 121 122
82 1 121 123
83 1 124 125
84 1 124 126
85 1 127 128
86 1 127 129
87 1 130 131
88 1 130 132
89 1 133 134
90 1 133 135
91 1 136 137
92 1 136 138
93 1 139 140
94 1 139 141
95 1 142 143
96 1 142 144
97 1 145 146
98 1 145 147
99 1 148 149
100 1 148 150
101 1 151 152
102 1 151 153
103 1 154 155
104 1 154 156
105 1 157 158
106 1 157 159
107 1 160 161
108 1 160 162
109 1 163 164
110 1 163 165
111 1 166 167
112 1 166 168
113 1 169 170
114 1 169 171
115 1 172 173
116 1 172 174
117 1 175 176
118 1 175 177
119 1 178 179
120 1 178 180
121 1 181 182
122 1 181 183
123 1 184 185
124 1 184 186
125 1 187 188
126 1 187 189
127 1 190 191
128 1 190 192
129 1 193 194
130 1 193 195
131 1 196 197
132 1 196 198
133 1 199 200
134 1 199 201
135 1 202 203
136 1 202 204
137 1 205 206
138 1 205 207
139 1 208 209
140 1 208 210
141 1 211 212
142 1 211 213
143 1 214 215
144 1 214 216
145 1 217 218
146 1 217 219
147 1 220 221
148 1 220 222
149 1 223 224
150 1 223 225
151 1 226 227
152 1 226 228
153 1 229 230
154 1 229 231
155 1 232 233
156 1 232 234
157 1 235 236
158 1 235 237
159 1 238 239
160 1 238 240
161 1 241 242
162 1 241 243
163 1 244 245
164 1 244 246
165 1 247 248
166 1 247 249
167 1 250 251
168 1 250 252
169 1 253 254
170 1 253 255
171 1 256 257
172 1 256 258
173 1 259 260
174 1 259 261
175 1 262 263
176 1 262 264
177 1 265 266
178 1 265 267
179 1 268 269
180 1 268 270
181 1 271 272
182 1 271 273
183 1 274 275
184 1 274 276
185 1 277 278
186 1 277 279
187 1 280 281
188 1 280 282
189 1 283 284
190 1 283 285
191 1 286 287
192 1 286 288
193 1 289 290
194 1 289 291
195 1 292 293
196 1 292 294
197 1 295 296
198 1 295 297
199 1 298 299
200 1 298 300
201 1 301 302
202 1 301 303
203 1 304 305
204 1 304 306
205 1 307 308
206 1 307 309
207 1 310 311
208 1 310 312
209 1 313 314
210 1 313 315
211 1 316 317
212 1 316 318
213 1 319 320
214 1 319 321
215 1 322 323
216 1 322 324
217 1 325 326
218 1 325 327
219 1 328 329
220 1 328 330
221 1 331 332
222 1 331 333
223 1 334 335
224 1 334 336
225 1 337 338
226 1 337 339
227 1 340 341
228 1 340 342
229 1 343 344
230 1 343 345
231 1 346 347
232 1 346 348
233 1 349 350
234 1 349 351
235 1 352 353
236 1 352 354
237 1 355 356
238 1 355 357
239 1 358 359
240 1 358 360
241 1 361 362
242 1 361 363
243 1 364 365
244 1 364 366
245 1 367 368
246 1 367 369
247 1 370 371
248 1 370 372
249 1 373 374
250 1 373 375
251 1 376 377
252 1 376 378
253 1 379 380
254 1 379 381
255 1 382 383
256 1 382 384
257 1 385 386
258 1 385 387
259 1 388 389
260 1 388 390
261 1 391 392
262 1 391 393
263 1 394 395
264 1 394 396
265 1 397 398
266 1 397 399
267 1 400 401
268 1 400 402
269 1 403 404
270 1 403 405
271 1 406 407
272 1 406 408
273 1 409 410
274 1 409 411
275 1 412 413
276 1 412 414
277 1 415 416
278 1 415 417
279 1 418 419
280 1 418 420
281 1 421 422
282 1 421 423
283 1 424 425
284 1 424 426
285 1 427 428
286 1 427 429
287 1 430 431
288 1 430 432
289 1 433 434
290 1 433 435
291 1 436 437
292 1 436 438
293 1 439 440
294 1 439 441
295 1 442 443
296 1 442 444
297 1 445 446
298 1 445 447
299 1 448 449
300 1 448 450
301 1 451 452
302 1 451 453
303 1 454 455
304 1 454 456
305 1 457 458
306 1 457 459
307 1 460 461
308 1 460 462
309 1 463 464
310 1 463 465
311 1 466 467
312 1 466 468
313 1 469 470
314 1 469 471
315 1 472 473
316 1 472 474
317 1 475 476
318 1 475 477
319 1 478 479
320 1 478 480
321 1 481 482
322 1 481 483
323 1 484 485
324 1 484 486
325 1 487 488
326 1 487 489
327 1 490 491
328 1 490 492
329 1 493 494
330 1 493 495
331 1 496 497
332 1 496 498
333 1 499 500
334 1 499 501
335 1 502 503
336 1 502 504
337 1 505 506
338 1 505 507
339 1 508 509
340 1 508 510
341 1 511 512
342 1 511 513
343 1 514 515
344 1 514 516
345 1 517 518
346 1 517 519
347 1 520 521
348 1 520 522
349 1 523 524
350 1 523 525
351 1 526 527
352 1 526 528
353 1 529 530
354 1 529 531
355 1 532 533
356 1 532 534
357 1 535 536
358 1 535 537
359 1 538 539
360 1 538 540
361 1 541 542
362 1 541 543
363 1 544 545
364 1 544 546
365 1 547 548
366 1 547 549
367 1 550 551
368 1 550 552
369 1 553 554
370 1 553 555
371 1 556 557
372 1 556 558
373 1 559 560
374 1 559 561
375 1 562 563
376 1 562 564
377 1 565 566
378 1 565 567
379 1 568 569
380 1 568 570
381 1 571 572
382 1 571 573
383 1 574 575
384 1 574 576
385 1 577 578
386 1 577 579
387 1 580 581
388 1 580 582
389 1 583 584
390 1 583 585
391 1 586 587
392 1 586 588
393 1 589 590
394 1 589 591
395 1 592 593
396 1 592 594
397 1 595 596
398 1 595 597
399 1 598 599
400 1 598 600
401 1 601 602
402 1 601 603
403 1 604 605
404 1 604 606
405 1 607 608
406 1 607 609
407 1 610 611
408 1 610 612
409 1 613 614
410 1 613 615
411 1 616 617
412 1 616 618
413 1 619 620
414 1 619 621
415 1 622 623
416 1 622 624
417 1 625 626
418 1 625 627
419 1 628 629
420 1 628 630
421 1 631 632
422 1 631 633
423 1 634 635
424 1 634 636
425 1 637 638
426 1 637 639
427 1 640 641
428 1 640 642
429 1 643 644
430 1 643 645
431 1 646 647
432 1 646 648
433 1 649 650
434 1 649 651
435 1 652 653
436 1 652 654
437 1 655 656
438 1 655 657
439 1 658 659
440 1 658 660
441 1 661 662
442 1 661 663
443 1 664 665
444 1 664 666
445 1 667 668
446 1 667 669
447 1 670 671
448 1 670 672
449 1 673 674
450 1 673 675
451 1 676 677
452 1 676 678
453 1 679 680
454 1 679 681
455 1 682 683
456 1 682 684
457 1 685 686
458 1 685 687
459 1 688 689
460 1 688 690
461 1 691 692
462 1 691 693
463 1 694 695
464 1 694 696
465 1 697 698
466 1 697 699
467 1 700 701
468 1 700 702
469 1 703 704
470 1 703 705
471 1 706 707
472 1 706 708
473 1 709 710
474 1 709 711
475 1 712 713
476 1 712 714
477 1 715 716
478 1 715 717
479 1 718 719
480 1 718 720
481 1 721 722
482 1 721 723
483 1 724 725
484 1 724 726
485 1 727 728
486 1 727 729
487 1 730 731
488 1 730 732
489 1 733 734
490 1 733 735
491 1 736 737
492 1 736 738
493 1 739 740
494 1 739 741
495 1 742 743
496 1 742 744
497 1 745 746
498 1 745 747
499 1 748 749
500 1 748 750
501 1 751 752
502 1 751 753
503 1 754 755
504 1 754 756
505 1 757 758
506 1 757 759
507 1 760 761
508 1 760 762
509 1 763 764
510 1 763 765
511 1 766 767
512 1 766 768
513 1 769 770
514 1 769 771
515 1 772 773
516 1 772 774
517 1 775 776
518 1 775 777
519 1 778 779
520 1 778 780
521 1 781 782
522 1 781 783
523 1 784 785
524 1 784 786
525 1 787 788
526 1 787 789
527 1 790 791
528 1 790 792
529 1 793 794
530 1 793 795
531 1 796 797
532 1 796 798
533 1 799 800
534 1 799 801
535 1 802 803
536 1 802 804
537 1 805 806
538 1 805 807
539 1 808 809
540 1 808 810
541 1 811 812
542 1 811 813
543 1 814 815
544 1 814 816
545 1 817 818
546 1 817 819
547 1 820 821
548 1 820 822
549 1 823 824
550 1 823 825
551 1 826 827
552 1 826 828
553 1 829 830
554 1 829 831
555 1 832 833
556 1 832 834
557 1 835 836
558 1 835 837
559 1 838 839
560 1 838 840
561 1 841 842
562 1 841 843
563 1 844 845
564 1 844 846
565 1 847 848
566 1 847 849
567 1 850 851
568 1 850 852
569 1 853 854
570 1 853 855
571 1 856 857
572 1 856 858
573 1 859 860
574 1 859 861
575 1 862 863
576 1 862 864
577 1 865 866
578 1 865 867
579 1 868 869
580 1 868 870
581 1 871 872
582 1 871 873
583 1 874 875
584 1 874 876
585 1 877 878
586 1 877 879
587 1 880 881
588 1 880 882
589 1 883 884
590 1 883 885
591 1 886 887
592 1 886 888
593 1 889 890
594 1 889 891
595 1 892 893
596 1 892 894
597 1 895 896
598 1 895 897
599 1 898 899
600 1 898 900
601 1 901 902
602 1 901 903
603 1 904 905
604 1 904 906
605 1 907 908
606 1 907 909
607 1 910 911
608 1 910 912
609 1 913 914
610 1 913 915
611 1 916 917
612 1 916 918
613 1 919 920
614 1 919 921
615 1 922 923
616 1 922 924
617 1 925 926
618 1 925 927
619 1 928 929
620 1 928 930
621 1 931 932
622 1 931 933
623 1 934 935
624 1 934 936
625 1 937 938
626 1 937 939
627 1 940 941
628 1 940 942
629 1 943 944
630 1 943 945
631 1 946 947
632 1 946 948
633 1 949 950
634 1 949 951
635 1 952 953
636 1 952 954
637 1 955 956
638 1 955 957
639 1 958 959
640 1 958 960
641 1 961 962
642 1 961 963
643 1 964 965
644 1 964 966
645 1 967 968
646 1 967 969
647 1 970 971
648 1 970 972
649 1 973 974
650 1 973 975
651 1 976 977
652 1 976 978
653 1 979 980
654 1 979 981
655 1 982 983
656 1 982 984
657 1 985 986
658 1 985 987
659 1 988 989
660 1 988 990
661 1 991 992
662 1 991 993
663 1 994 995
664 1 994 996
665 1 997 998
666 1 997 999
667 1 1000 1001
668 1 1000 1002
669 1 1003 1004
670 1 1003 1005
671 1 1006 1007
672 1 1006 1008
673 1 1009 1010
674 1 1009 1011
675 1 1012 1013
676 1 1012 1014
677 1 1015 1016
678 1 1015 1017
679 1 1018 1019
680 1 1018 1020
681 1 1021 1022
682 1 1021 1023
683 1 1024 1025
684 1 1024 1026
685 1 1027 1028
686 1 1027 1029
687 1 1030 1031
688 1 1030 1032
689 1 1033 1034
690 1 1033 1035
691 1 1036 1037
692 1 1036 1038
693 1 1039 1040
694 1 1039 1041
695 1 1042 1043
696 1 1042 1044
697 1 1045 1046
698 1 1045 1047
699 1 1048 1049
700 1 1048 1050
701 1 1051 1052
702 1 1051 1053
703 1 1054 1055
704 1 1054 1056
705 1 1057 1058
706 1 1057 1059
707 1 1060 1061
708 1 1060 1062
709 1 1063 1064
710 1 1063 1065
711 1 1066 1067
712 1 1066 1068
713 1 1069 1070
714 1 1069 1071
715 1 1072 1073
716 1 1072 1074
717 1 1075 1076
718 1 1075 1077
719 1 1078 1079
720 1 1078 1080
721 1 1081 1082
722 1 1081 1083
723 1 1084 1085
724 1 1084 1086
725 1 1087 1088
726 1 1087 1089
727 1 1090 1091
728 1 1090 1092
729 1 1093 1094
730 1 1093 1095
731 1 1096 1097
732 1 1096 1098
733 1 1099 1100
734 1 1099 1101
735 1 1102 1103
736 1 1102 1104
737 1 1105 1106
738 1 1105 1107
739 1 1108 1109
740 1 1108 1110
741 1 1111 1112
742 1 1111 1113
743 1 1114 1115
744 1 1114 1116
745 1 1117 1118
746 1 1117 1119
747 1 1120 1121
748 1 1120 1122
749 1 1123 1124
750 1 1123 1125
751 1 1126 1127
752 1 1126 1128
753 1 1129 1130
754 1 1129 1131
755 1 1132 1133
756 1 1132 1134
757 1 1135 1136
758 1 1135 1137
759 1 1138 1139
760 1 1138 1140
761 1 1141 1142
762 1 1141 1143
763 1 1144 1145
764 1 1144 1146
765 1 1147 1148
766 1 1147 1149
767 1 1150 1151
768 1 1150 1152
769 1 1153 1154
770 1 1153 1155
771 1 1156 1157
772 1 1156 1158
773 1 1159 1160
774 1 1159 1161
775 1 1162 1163
776 1 1162 1164
777 1 1165 1166
778 1 1165 1167
779 1 1168 1169
780 1 1168 1170
781 1 1171 1172
782 1 1171 1173
783 1 1174 1175
784 1 1174 1176
785 1 1177 1178
786 1 1177 1179
787 1 1180 1181
788 1 1180 1182
789 1 1183 1184
790 1 1183 1185
791 1 1186 1187
792 1 1186 1188
793 1 1189 1190
794 1 1189 1191
795 1 1192 1193
796 1 1192 1194
797 1 1195 1196
798 1 1195 1197
799 1 1198 1199
800 1 1198 1200
801 1 1201 1202
802 1 1201 1203
803 1 1204 1205
804 1 1204 1206
805 1 1207 1208
806 1 1207 1209
807 1 1210 1211
808 1 1210 1212
809 1 1213 1214
810 1 1213 1215
811 1 1216 1217
812 1 1216 1218
813 1 1219 1220
814 1 1219 1221
815 1 1222 1223
816 1 1222 1224
817 1 1225 1226
818 1 1225 1227
819 1 1228 1229
820 1 1228 1230
821 1 1231 1232
822 1 1231 1233
823 1 1234 1235
824 1 1234 1236
825 1 1237 1238
826 1 1237 1239
827 1 1240 1241
828 1 1240 1242
829 1 1243 1244
830 1 1243 1245
831 1 1246 1247
832 1 1246 1248
833 1 1249 1250
834 1 1249 1251
835 1 1252 1253
836 1 1252 1254
837 1 1255 1256
838 1 1255 1257
839 1 1258 1259
840 1 1258 1260
841 1 1261 1262
842 1 1261 1263
843 1 1264 1265
844 1 1264 1266
845 1 1267 1268
846 1 1267 1269
847 1 1270 1271
848 1 1270 1272
849 1 1273 1274
850 1 1273 1275
851 1 1276 1277
852 1 1276 1278
853 1 1279 1280
854 1 1279 1281
855 1 1282 1283
856 1 1282 1284
857 1 1285 1286
858 1 1285 1287
859 1 1288 1289
860 1 1288 1290
861 1 1291 1292
862 1 1291 1293
863 1 1294 1295
864 1 1294 1296
865 1 1297 1298
866 1 1297 1299
867 1 1300 1301
868 1 1300 1302
869 1 1303 1304
870 1 1303 1305
871 1 1306 1307
872 1 1306 1308
873 1 1309 1310
874 1 1309 1311
875 1 1312 1313
876 1 1312 1314
877 1 1315 1316
878 1 1315 1317
879 1 1318 1319
880 1 1318 1320
881 1 1321 1322
882 1 1321 1323
883 1 1324 1325
884 1 1324 1326
885 1 1327 1328
886 1 1327 1329
887 1 1330 1331
888 1 1330 1332
889 1 1333 1334
890 1 1333 1335
891 1 1336 1337
892 1 1336 1338
893 1 1339 1340
894 1 1339 1341
895 1 1342 1343
896 1 1342 1344
897 1 1345 1346
898 1 1345 1347
899 1 1348 1349
900 1 1348 1350
901 1 1351 1352
902 1 1351 1353
903 1 1354 1355
904 1 1354 1356
905 1 1357 1358
906 1 1357 1359
907 1 1360 1361
908 1 1360 1362
909 1 1363 1364
910 1 1363 1365
911 1 1366 1367
912 1 1366 1368
913 1 1369 1370
914 1 1369 1371
915 1 1372 1373
916 1 1372 1374
917 1 1375 1376
918 1 1375 1377
919 1 1378 1379
920 1 1378 1380
921 1 1381 1382
922 1 1381 1383
923 1 1384 1385
924 1 1384 1386
925 1 1387 1388
926 1 1387 1389
927 1 1390 1391
928 1 1390 1392
929 1 1393 1394
930 1 1393 1395
931 1 1396 1397
932 1 1396 1398
933 1 1399 1400
934 1 1399 1401
935 1 1402 1403
936 1 1402 1404
937 1 1405 1406
938 1 1405 1407
939 1 1408 1409
940 1 1408 1410
941 1 1411 1412
942 1 1411 1413
943 1 1414 1415
944 1 1414 1416
945 1 1417 1418
946 1 1417 1419
947 1 1420 1421
948 1 1420 1422
949 1 1423 1424
950 1 1423 1425
951 1 1426 1427
952 1 1426 1428
953 1 1429 1430
954 1 1429 1431
955 1 1432 1433
956 1 1432 1434
957 1 1435 1436
958 1 1435 1437
959 1 1438 1439
960 1 1438 1440
961 1 1441 1442
962 1 1441 1443
963 1 1444 1445
964 1 1444 1446
965 1 1447 1448
966 1 1447 1449
967 1 1450 1451
968 1 1450 1452
969 1 1453 1454
970 1 1453 1455
971 1 1456 1457
972 1 1456 1458
973 1 1459 1460
974 1 1459 1461
975 1 1462 1463
976 1 1462 1464
977 1 1465 1466
978 1 1465 1467
979 1 1468 1469
980 1 1468 1470
981 1 1471 1472
982 1 1471 1473
983 1 1474 1475
984 1 1474 1476
985 1 1477 1478
986 1 1477 1479
987 1 1480 1481
988 1 1480 1482
989 1 1483 1484
990 1 1483 1485
991 1 1486 1487
992 1 1486 1488
993 1 1489 1490
994 1 1489 1491
995 1 1492 1493
996 1 1492 1494
997 1 1495 1496
998 1 1495 1497
999 1 1498 1499
1000 1 1498 1500
1001 1 1501 1502
1002 1 1501 1503
1003 1 1504 1505
1004 1 1504 1506
1005 1 1507 1508
1006 1 1507 1509
1007 1 1510 1511
1008 1 1510 1512
1009 1 1513 1514
1010 1 1513 1515
1011 1 1516 1517
1012 1 1516 1518
1013 1 1519 1520
1014 1 1519 1521
1015 1 1522 1523
1016 1 1522 1524
1017 1 1525 1526
1018 1 1525 1527
1019 1 1528 1529
1020 1 1528 1530
1021 1 1531 1532
1022 1 1531 1533
1023 1 1534 1535
1024 1 1534 1536
1025 1 1537 1538
1026 1 1537 1539
1027 1 1540 1541
1028 1 1540 1542
1029 1 1543 1544
1030 1 1543 1545
1031 1 1546 1547
1032 1 1546 1548
1033 1 1549 1550
1034 1 1549 1551
1035 1 1552 1553
1036 1 1552 1554
1037 1 1555 1556
1038 1 1555 1557
1039 1 1558 1559
1040 1 1558 1560
1041 1 1561 1562
1042 1 1561 1563
1043 1 1564 1565
1044 1 1564 1566
1045 1 1567 1568
1046 1 1567 1569
1047 1 1570 1571
1048 1 1570 1572
1049 1 1573 1574
1050 1 1573 1575
1051 1 1576 1577
1052 1 1576 1578
1053 1 1579 1580
1054 1 1579 1581
1055 1 1582 1583
1056 1 1582 1584
1057 1 1585 1586
1058 1 1585 1587
1059 1 1588 1589
1060 1 1588 1590
1061 1 1591 1592
1062 1 1591 1593
1063 1 1594 1595
1064 1 1594 1596
1065 1 1597 1598
1066 1 1597 1599
1067 1 1600 1601
1068 1 1600 1602
1069 1 1603 1604
1070 1 1603 1605
1071 1 1606 1607
1072 1 1606 1608
1073 1 1609 1610
1074 1 1609 1611
1075 1 1612 1613
1076 1 1612 1614
1077 1 1615 1616
1078 1 1615 1617
1079 1 1618 1619
1080 1 1618 1620
1081 1 1621 1622
1082 1 1621 1623
1083 1 1624 1625
1084 1 1624 1626
1085 1 1627 1628
1086 1 1627 1629
1087 1 1630 1631
1088 1 1630 1632
1089 1 1633 1634
1090 1 1633 1635
1091 1 1636 1637
1092 1 1636 1638
1093 1 1639 1640
1094 1 1639 1641
1095 1 1642 1643
1096 1 1642 1644
1097 1 1645 1646
1098 1 1645 1647
1099 1 1648 1649
1100 1 1648 1650
1101 1 1651 1652
1102 1 1651 1653
1103 1 1654 1655
1104 1 1654 1656
1105 1 1657 1658
1106 1 1657 1659
1107 1 1660 1661
1108 1 1660 1662
1109 1 1663 1664
1110 1 1663 1665
1111 1 1666 1667
1112 1 1666 1668
1113 1 1669 1670
1114 1 1669 1671
1115 1 1672 1673
1116 1 1672 1674
1117 1 1675 1676
1118 1 1675 1677
1119 1 1678 1679
1120 1 1678 1680
1121 1 1681 1682
1122 1 1681 1683
1123 1 1684 1685
1124 1 1684 1686
1125 1 1687 1688
1126 1 1687 1689
1127 1 1690 1691
1128 1 1690 1692
1129 1 1693 1694
1130 1 1693 1695
1131 1 1696 1697
1132 1 1696 1698
1133 1 1699 1700
1134 1 1699 1701
1135 1 1702 1703
1136 1 1702 1704
1137 1 1705 1706
1138 1 1705 1707
1139 1 1708 1709
1140 1 1708 1710
1141 1 1711 1712
1142 1 1711 1713
1143 1 1714 1715
1144 1 1714 1716
1145 1 1717 1718
1146 1 1717 1719
1147 1 1720 1721
1148 1 1720 1722
1149 1 1723 1724
1150 1 1723 1725
1151 1 1726 1727
1152 1 1726 1728
1153 1 1729 1730
1154 1 1729 1731
1155 1 1732 1733
1156 1 1732 1734
1157 1 1735 1736
1158 1 1735 1737
1159 1 1738 1739
1160 1 1738 1740
1161 1 1741 1742
1162 1 1741 1743
1163 1 1744 1745
1164 1 1744 1746
1165 1 1747 1748
1166 1 1747 1749
1167 1 1750 1751
1168 1 1750 1752
1169 1 1753 1754
1170 1 1753 1755
1171 1 1756 1757
1172 1 1756 1758
1173 1 1759 1760
1174 1 1759 1761
1175 1 1762 1763
1176 1 1762 1764
1177 1 1765 1766
1178 1 1765 1767
1179 1 1768 1769
1180 1 1768 1770
1181 1 1771 1772
1182 1 1771 1773
1183 1 1774 1775
1184 1 1774 1776
1185 1 1777 1778
1186 1 1777 1779
1187 1 1780 1781
1188 1 1780 1782
1189 1 1783 1784
1190 1 1783 1785
1191 1 1786 1787
1192 1 1786 1788
1193 1 1789 1790
1194 1 1789 1791
1195 1 1792 1793
1196 1 1792 1794
1197 1 1795 1796
1198 1 1795 1797
1199 1 1798 1799
1200 1 1798 1800
1201 1 1801 1802
1202 1 1801 1803
1203 1 1804 1805
1204 1 1804 1806
1205 1 1807 1808
1206 1 1807 1809
1207 1 1810 1811
1208 1 1810 1812
1209 1 1813 1814
1210 1 1813 1815
1211 1 1816 1817
1212 1 1816 1818
1213 1 1819 1820
1214 1 1819 1821
1215 1 1822 1823
1216 1 1822 1824
1217 1 1825 1826
1218 1 1825 1827
1219 1 1828 1829
1220 1 1828 1830
1221 1 1831 1832
1222 1 1831 1833
1223 1 1834 1835
1224 1 1834 1836
1225 1 1837 1838
1226 1 1837 1839
1227 1 1840 1841
1228 1 1840 1842
1229 1 1843 1844
1230 1 1843 1845
1231 1 1846 1847
1232 1 1846 1848
1233 1 1849 1850
1234 1 1849 1851
1235 1 1852 1853
1236 1 1852 1854
1237 1 1855 1856
1238 1 1855 1857
1239 1 1858 1859
1240 1 1858 1860
1241 1 1861 1862
1242 1 1861 1863
1243 1 1864 1865
1244 1 1864 1866
1245 1 1867 1868
1246 1 1867 1869
1247 1 1870 1871
1248 1 1870 1872
1249 1 1873 1874
1250 1 1873 1875
1251 1 1876 1877
1252 1 1876 1878
1253 1 1879 1880
1254 1 1879 1881
1255 1 1882 1883
1256 1 1882 1884
1257 1 1885 1886
1258 1 1885 1887
1259 1 1888 1889
1260 1 1888 1890
1261 1 1891 1892
1262 1 1891 1893
1263 1 1894 1895
1264 1 1894 1896
1265 1 1897 1898
1266 1 1897 1899
1267 1 1900 1901
1268 1 1900 1902
1269 1 1903 1904
1270 1 1903 1905
1271 1 1906 1907
1272 1 1906 1908
1273 1 1909 1910
1274 1 1909 1911
1275 1 1912 1913
1276 1 1912 1914
1277 1 1915 1916
1278 1 1915 1917
1279 1 1918 1919
1280 1 1918 1920
1281 1 1921 1922
1282 1 1921 1923
1283 1 1924 1925
1284 1 1924 1926
1285 1 1927 1928
1286 1 1927 1929
1287 1 1930 1931
1288 1 1930 1932
1289 1 1933 1934
1290 1 1933 1935
1291 1 1936 1937
1292 1 1936 1938
1293 1 1939 1940
1294 1 1939 1941
1295 1 1942 1943
1296 1 1942 1944
1297 1 1945 1946
1298 1 1945 1947
1299 1 1948 1949
1300 1 1948 1950
1301 1 1951 1952
1302 1 1951 1953
1303 1 1954 1955
1304 1 1954 1956
1305 1 1957 1958
1306 1 1957 1959
1307 1 1960 1961
1308 1 1960 1962
1309 1 1963 1964
1310 1 1963 1965
1311 1 1966 1967
1312 1 1966 1968
1313 1 1969 1970
1314 1 1969 1971
1315 1 1972 1973
1316 1 1972 1974
1317 1 1975 1976
1318 1 1975 1977
1319 1 1978 1979
1320 1 1978 1980
1321 1 1981 1982
1322 1 1981 1983
1323 1 1984 1985
1324 1 1984 1986
1325 1 1987 1988
1326 1 1987 1989
1327 1 1990 1991
1328 1 1990 1992
1329 1 1993 1994
1330 1 1993 1995
1331 1 1996 1997
1332 1 1996 1998
1333 1 1999 2000
1334 1 1999 2001
1335 1 2002 2003
1336 1 2002 2004
1337 1 2005 2006
1338 1 2005 2007
1339 1 2008 2009
1340 1 2008 2010
1341 1 2011 2012
1342 1 2011 2013
1343 1 2014 2015
1344 1 2014 2016
1345 1 2017 2018
1346 1 2017 2019
1347 1 2020 2021
1348 1 2020 2022
1349 1 2023 2024
1350 1 2023 2025
1351 1 2026 2027
1352 1 2026 2028
1353 1 2029 2030
1354 1 2029 2031
1355 1 2032 2033
1356 1 2032 2034
1357 1 2035 2036
1358 1 2035 2037
1359 1 2038 2039
1360 1 2038 2040
1361 1 2041 2042
1362 1 2041 2043
1363 1 2044 2045
1364 1 2044 2046
1365 1 2047 2048
1366 1 2047 2049
1367 1 2050 2051
1368 1 2050 2052
1369 1 2053 2054
1370 1 2053 2055
1371 1 2056 2057
1372 1 2056 2058
1373 1 2059 2060
1374 1 2059 2061
1375 1 2062 2063
1376 1 2062 2064
1377 1 2065 2066
1378 1 2065 2067
1379 1 2068 2069
1380 1 2068 2070
1381 1 2071 2072
1382 1 2071 2073
1383 1 2074 2075
1384 1 2074 2076
1385 1 2077 2078
1386 1 2077 2079
1387 1 2080 2081
1388 1 2080 2082
1389 1 2083 2084
1390 1 2083 2085
1391 1 2086 2087
1392 1 2086 2088
1393 1 2089 2090
1394 1 2089 2091
1395 1 2092 2093
1396 1 2092 2094
1397 1 2095 2096
1398 1 2095 2097
1399 1 2098 2099
1400 1 2098 2100
1401 1 2101 2102
1402 1 2101 2103
1403 1 2104 2105
1404 1 2104 2106
1405 1 2107 2108
1406 1 2107 2109
1407 1 2110 2111
1408 1 2110 2112
1409 1 2113 2114
1410 1 2113 2115
1411 1 2116 2117
1412 1 2116 2118
1413 1 2119 2120
1414 1 2119 2121
1415 1 2122 2123
1416 1 2122 2124
1417 1 2125 2126
1418 1 2125 2127
1419 1 2128 2129
1420 1 2128 2130
1421 1 2131 2132
1422 1 2131 2133
1423 1 2134 2135
1424 1 2134 2136
1425 1 2137 2138
1426 1 2137 2139
1427 1 2140 2141
1428 1 2140 2142
1429 1 2143 2144
1430 1 2143 2145
1431 1 2146 2147
1432 1 2146 2148
1433 1 2149 2150
1434 1 2149 2151
1435 1 2152 2153
1436 1 2152 2154
1437 1 2155 2156
1438 1 2155 2157
1439 1 2158 2159
1440 1 2158 2160
1441 1 2161 2162
1442 1 2161 2163
1443 1 2164 2165
1444 1 2164 2166
1445 1 2167 2168
1446 1 2167 2169
1447 1 2170 2171
1448 1 2170 2172
1449 1 2173 2174
1450 1 2173 2175
1451 1 2176 2177
1452 1 2176 2178
1453 1 2179 2180
1454 1 2179 2181
1455 1 2182 2183
1456 1 2182 2184
1457 1 2185 2186
1458 1 2185 2187
1459 1 2188 2189
1460 1 2188 2190
1461 1 2191 2192
1462 1 2191 2193
1463 1 2194 2195
1464 1 2194 2196
1465 1 2197 2198
1466 1 2197 2199
1467 1 2200 2201
1468 1 2200 2202
1469 1 2203 2204
1470 1 2203 2205
1471 1 2206 2207
1472 1 2206 2208
1473 1 2209 2210
1474 1 2209 2211
1475 1 2212 2213
1476 1 2212 2214
1477 1 2215 2216
1478 1 2215 2217
1479 1 2218 2219
1480 1 2218 2220
1481 1 2221 2222
1482 1 2221 2223
1483 1 2224 2225
1484 1 2224 2226
1485 1 2227 2228
1486 1 2227 2229
1487 1 2230 2231
1488 1 2230 2232
1489 1 2233 2234
1490 1 2233 2235
1491 1 2236 2237
1492 1 2236 2238
1493 1 2239 2240
1494 1 2239 2241
1495 1 2242 2243
1496 1 2242 2244
1497 1 2245 2246
1498 1 2245 2247
1499 1 2248 2249
1500 1 2248 2250
1501 1 2251 2252
1502 1 2251 2253
1503 1 2254 2255
1504 1 2254 2256
1505 1 2257 2258
1506 1 2257 2259
1507 1 2260 2261
1508 1 2260 2262
1509 1 2263 2264
1510 1 2263 2265
1511 1 2266 2267
1512 1 2266 2268
1513 1 2269 2270
1514 1 2269 2271
1515 1 2272 2273
1516 1 2272 2274
1517 1 2275 2276
1518 1 2275 2277
1519 1 2278 2279
1520 1 2278 2280
1521 1 2281 2282
1522 1 2281 2283
1523 1 2284 2285
1524 1 2284 2286
1525 1 2287 2288
1526 1 2287 2289
1527 1 2290 2291
1528 1 2290 2292
1529 1 2293 2294
1530 1 2293 2295
1531 1 2296 2297
1532 1 2296 2298
1533 1 2299 2300
1534 1 2299 2301
1535 1 2302 2303
1536 1 2302 2304
1537 1 2305 2306
1538 1 2305 2307
1539 1 2308 2309
1540 1 2308 2310
1541 1 2311 2312
1542 1 2311 2313
1543 1 2314 2315
1544 1 2314 2316
1545 1 2317 2318
1546 1 2317 2319
1547 1 2320 2321
1548 1 2320 2322
1549 1 2323 2324
1550 1 2323 2325
1551 1 2326 2327
1552 1 2326 2328
1553 1 2329 2330
1554 1 2329 2331
1555 1 2332 2333
1556 1 2332 2334
1557 1 2335 2336
1558 1 2335 2337
1559 1 2338 2339
1560 1 2338 2340
1561 1 2341 2342
1562 1 2341 2343
1563 1 2344 2345
1564 1 2344 2346
1565 1 2347 2348
1566 1 2347 2349
1567 1 2350 2351
1568 1 2350 2352
1569 1 2353 2354
1570 1 2353 2355
1571 1 2356 2357
1572 1 2356 2358
1573 1 2359 2360
1574 1 2359 2361
1575 1 2362 2363
1576 1 2362 2364
1577 1 2365 2366
1578 1 2365 2367
1579 1 2368 2369
1580 1 2368 2370
1581 1 2371 2372
1582 1 2371 2373
1583 1 2374 2375
1584 1 2374 2376
1585 1 2377 2378
1586 1 2377 2379
1587 1 2380 2381
1588 1 2380 2382
1589 1 2383 2384
1590 1 2383 2385
1591 1 2386 2387
1592 1 2386 2388
1593 1 2389 2390
1594 1 2389 2391
1595 1 2392 2393
1596 1 2392 2394
1597 1 2395 2396
1598 1 2395 2397
1599 1 2398 2399
1600 1 2398 2400
1601 1 2401 2402
1602 1 2401 2403
1603 1 2404 2405
1604 1 2404 2406
1605 1 2407 2408
1606 1 2407 2409
1607 1 2410 2411
1608 1 2410 2412
1609 1 2413 2414
1610 1 2413 2415
1611 1 2416 2417
1612 1 2416 2418
1613 1 2419 2420
1614 1 2419 2421
1615 1 2422 2423
1616 1 2422 2424
1617 1 2425 2426
1618 1 2425 2427
1619 1 2428 2429
1620 1 2428 2430
1621 1 2431 2432
1622 1 2431 2433
1623 1 2434 2435
1624 1 2434 2436
1625 1 2437 2438
1626 1 2437 2439
1627 1 2440 2441
1628 1 2440 2442
1629 1 2443 2444
1630 1 2443 2445
1631 1 2446 2447
1632 1 2446 2448
1633 1 2449 2450
1634 1 2449 2451
1635 1 2452 2453
1636 1 2452 2454
1637 1 2455 2456
1638 1 2455 2457
1639 1 2458 2459
1640 1 2458 2460
1641 1 2461 2462
1642 1 2461 2463
1643 1 2464 2465
1644 1 2464 2466
1645 1 2467 2468
1646 1 2467 2469
1647 1 2470 2471
1648 1 2470 2472
1649 1 2473 2474
1650 1 2473 2475
1651 1 2476 2477
1652 1 2476 2478
1653 1 2479 2480
1654 1 2479 2481
1655 1 2482 2483
1656 1 2482 2484
1657 1 2485 2486
1658 1 2485 2487
1659 1 2488 2489
1660 1 2488 2490
1661 1 2491 2492
1662 1 2491 2493
1663 1 2494 2495
1664 1 2494 2496
1665 1 2497 2498
1666 1 2497 2499
1667 1 2500 2501
1668 1 2500 2502
1669 1 2503 2504
1670 1 2503 2505
1671 1 2506 2507
1672 1 2506 2508
1673 1 2509 2510
1674 1 2509 2511
1675 1 2512 2513
1676 1 2512 2514
1677 1 2515 2516
1678 1 2515 2517
1679 1 2518 2519
1680 1 2518 2520
1681 1 2521 2522
1682 1 2521 2523
1683 1 2524 2525
1684 1 2524 2526
1685 1 2527 2528
1686 1 2527 2529
1687 1 2530 2531
1688 1 2530 2532
1689 1 2533 2534
1690 1 2533 2535
1691 1 2536 2537
1692 1 2536 2538
1693 1 2539 2540
1694 1 2539 2541
1695 1 2542 2543
1696 1 2542 2544
1697 1 2545 2546
1698 1 2545 2547
1699 1 2548 2549
1700 1 2548 2550
1701 1 2551 2552
1702 1 2551 2553
1703 1 2554 2555
1704 1 2554 2556
1705 1 2557 2558
1706 1 2557 2559
1707 1 2560 2561
1708 1 2560 2562
1709 1 2563 2564
1710 1 2563 2565
1711 1 2566 2567
1712 1 2566 2568
1713 1 2569 2570
1714 1 2569 2571
1715 1 2572 2573
1716 1 2572 2574
1717 1 2575 2576
1718 1 2575 2577
1719 1 2578 2579
1720 1 2578 2580
1721 1 2581 2582
1722 1 2581 2583
1723 1 2584 2585
1724 1 2584 2586
1725 1 2587 2588
1726 1 2587 2589
1727 1 2590 2591
1728 1 2590 2592
1729 1 2593 2594
1730 1 2593 2595
1731 1 2596 2597
1732 1 2596 2598
1733 1 2599 2600
1734 1 2599 2601
1735 1 2602 2603
1736 1 2602 2604
1737 1 2605 2606
1738 1 2605 2607
1739 1 2608 2609
1740 1 2608 2610
1741 1 2611 2612
1742 1 2611 2613
1743 1 2614 2615
1744 1 2614 2616
1745 1 2617 2618
1746 1 2617 2619
1747 1 2620 2621
1748 1 2620 2622
1749 1 2623 2624
1750 1 2623 2625
1751 1 2626 2627
1752 1 2626 2628
1753 1 2629 2630
1754 1 2629 2631
1755 1 2632 2633
1756 1 2632 2634
1757 1 2635 2636
1758 1 2635 2637
1759 1 2638 2639
1760 1 2638 2640
1761 1 2641 2642
1762 1 2641 2643
1763 1 2644 2645
1764 1 2644 2646
1765 1 2647 2648
1766 1 2647 2649
1767 1 2650 2651
1768 1 2650 2652
1769 1 2653 2654
1770 1 2653 2655
1771 1 2656 2657
1772 1 2656 2658
1773 1 2659 2660
1774 1 2659 2661
1775 1 2662 2663
1776 1 2662 2664
1777 1 2665 2666
1778 1 2665 2667
1779 1 2668 2669
1780 1 2668 2670
1781 1 2671 2672
1782 1 2671 2673
1783 1 2674 2675
1784 1 2674 2676
1785 1 2677 2678
1786 1 2677 2679
1787 1 2680 2681
1788 1 2680 2682
1789 1 2683 2684
1790 1 2683 2685
1791 1 2686 2687
1792 1 2686 2688
1793 1 2689 2690
1794 1 2689 2691
1795 1 2692 2693
1796 1 2692 2694
1797 1 2695 2696
1798 1 2695 2697
1799 1 2698 2699
1800 1 2698 2700
1801 1 2701 2702
1802 1 2701 2703
1803 1 2704 2705
1804 1 2704 2706
1805 1 2707 2708
1806 1 2707 2709
1807 1 2710 2711
1808 1 2710 2712
1809 1 2713 2714
1810 1 2713 2715
1811 1 2716 2717
1812 1 2716 2718
1813 1 2719 2720
1814 1 2719 2721
1815 1 2722 2723
1816 1 2722 2724
1817 1 2725 2726
1818 1 2725 2727
1819 1 2728 2729
1820 1 2728 2730
1821 1 2731 2732
1822 1 2731 2733
1823 1 2734 2735
1824 1 2734 2736
1825 1 2737 2738
1826 1 2737 2739
1827 1 2740 2741
1828 1 2740 2742
1829 1 2743 2744
1830 1 2743 2745
1831 1 2746 2747
1832 1 2746 2748
1833 1 2749 2750
1834 1 2749 2751
1835 1 2752 2753
1836 1 2752 2754
1837 1 2755 2756
1838 1 2755 2757
1839 1 2758 2759
1840 1 2758 2760
1841 1 2761 2762
1842 1 2761 2763
1843 1 2764 2765
1844 1 2764 2766
1845 1 2767 2768
1846 1 2767 2769
1847 1 2770 2771
1848 1 2770 2772
1849 1 2773 2774
1850 1 2773 2775
1851 1 2776 2777
1852 1 2776 2778
1853 1 2779 2780
1854 1 2779 2781
1855 1 2782 2783
1856 1 2782 2784
1857 1 2785 2786
1858 1 2785 2787
1859 1 2788 2789
1860 1 2788 2790
1861 1 2791 2792
1862 1 2791 2793
1863 1 2794 2795
1864 1 2794 2796
1865 1 2797 2798
1866 1 2797 2799
1867 1 2800 2801
1868 1 2800 2802
1869 1 2803 2804
1870 1 2803 2805
1871 1 2806 2807
1872 1 2806 2808
1873 1 2809 2810
1874 1 2809 2811
1875 1 2812 2813
1876 1 2812 2814
1877 1 2815 2816
1878 1 2815 2817
1879 1 2818 2819
1880 1 2818 2820
1881 1 2821 2822
1882 1 2821 2823
1883 1 2824 2825
1884 1 2824 2826
1885 1 2827 2828
1886 1 2827 2829
1887 1 2830 2831
1888 1 2830 2832
1889 1 2833 2834
1890 1 2833 2835
1891 1 2836 2837
1892 1 2836 2838
1893 1 2839 2840
1894 1 2839 2841
1895 1 2842 2843
1896 1 2842 2844
1897 1 2845 2846
1898 1 2845 2847
1899 1 2848 2849
1900 1 2848 2850
1901 1 2851 2852
1902 1 2851 2853
1903 1 2854 2855
1904 1 2854 2856
1905 1 2857 2858
1906 1 2857 2859
1907 1 2860 2861
1908 1 2860 2862
1909 1 2863 2864
1910 1 2863 2865
1911 1 2866 2867
1912 1 2866 2868
1913 1 2869 2870
1914 1 2869 2871
1915 1 2872 2873
1916 1 2872 2874
1917 1 2875 2876
1918 1 2875 2877
1919 1 2878 2879
1920 1 2878 2880
1921 1 2881 2882
1922 1 2881 2883
1923 1 2884 2885
1924 1 2884 2886
1925 1 2887 2888
1926 1 2887 2889
1927 1 2890 2891
1928 1 2890 2892
1929 1 2893 2894
1930 1 2893 2895
1931 1 2896 2897
1932 1 2896 2898
1933 1 2899 2900
1934 1 2899 2901
1935 1 2902 2903
1936 1 2902 2904
1937 1 2905 2906
1938 1 2905 2907
1939 1 2908 2909
1940 1 2908 2910
1941 1 2911 2912
1942 1 2911 2913
1943 1 2914 2915
1944 1 2914 2916
1945 1 2917 2918
1946 1 2917 2919
1947 1 2920 2921
1948 1 2920 2922
1949 1 2923 2924
1950 1 2923 2925
1951 1 2926 2927
1952 1 2926 2928
1953 1 2929 2930
1954 1 2929 2931
1955 1 2932 2933
1956 1 2932 2934
1957 1 2935 2936
1958 1 2935 2937
1959 1 2938 2939
1960 1 2938 2940
1961 1 2941 2942
1962 1 2941 2943
1963 1 2944 2945
1964 1 2944 2946
1965 1 2947 2948
1966 1 2947 2949
1967 1 2950 2951
1968 1 2950 2952
1969 1 2953 2954
1970 1 2953 2955
1971 1 2956 2957
1972 1 2956 2958
1973 1 2959 2960
1974 1 2959 2961
1975 1 2962 2963
1976 1 2962 2964
1977 1 2965 2966
1978 1 2965 2967
1979 1 2968 2969
1980 1 2968 2970
1981 1 2971 2972
1982 1 2971 2973
1983 1 2974 2975
1984 1 2974 2976
1985 1 2977 2978
1986 1 2977 2979
1987 1 2980 2981
1988 1 2980 2982
1989 1 2983 2984
1990 1 2983 2985
1991 1 2986 2987
1992 1 2986 2988
1993 1 2989 2990
1994 1 2989 2991
1995 1 2992 2993
1996 1 2992 2994
1997 1 2995 2996
1998 1 2995 2997
1999 1 2998 2999
2000 1 2998 3000
2001 1 3001 3002
2002 1 3001 3003
2003 1 3004 3005
2004 1 3004 3006
2005 1 3007 3008
2006 1 3007 3009
2007 1 3010 3011
2008 1 3010 3012
2009 1 3013 3014
2010 1 3013 3015
2011 1 3016 3017
2012 1 3016 3018
2013 1 3019 3020
2014 1 3019 3021
2015 1 3022 3023
2016 1 3022 3024
2017 1 3025 3026
2018 1 3025 3027
2019 1 3028 3029
2020 1 3028 3030
2021 1 3031 3032
2022 1 3031 3033
2023 1 3034 3035
2024 1 3034 3036
2025 1 3037 3038
2026 1 3037 3039
2027 1 3040 3041
2028 1 3040 3042
2029 1 3043 3044
2030 1 3043 3045
2031 1 3046 3047
2032 1 3046 3048
2033 1 3049 3050
2034 1 3049 3051
2035 1 3052 3053
2036 1 3052 3054
2037 1 3055 3056
2038 1 3055 3057
2039 1 3058 3059
2040 1 3058 3060
2041 1 3061 3062
2042 1 3061 3063
2043 1 3064 3065
2044 1 3064 3066
2045 1 3067 3068
2046 1 3067 3069
2047 1 3070 3071
2048 1 3070 3072
2049 1 3073 3074
2050 1 3073 3075
2051 1 3076 3077
2052 1 3076 3078
2053 1 3079 3080
2054 1 3079 3081
2055 1 3082 3083
2056 1 3082 3084
2057 1 3085 3086
2058 1 3085 3087
2059 1 3088 3089
2060 1 3088 3090
2061 1 3091 3092
2062 1 3091 3093
2063 1 3094 3095
2064 1 3094 3096
2065 1 3097 3098
2066 1 3097 3099
2067 1 3100 3101
2068 1 3100 3102
2069 1 3103 3104
2070 1 3103 3105
2071 1 3106 3107
2072 1 3106 3108
2073 1 3109 3110
2074 1 3109 3111
2075 1 3112 3113
2076 1 3112 3114
2077 1 3115 3116
2078 1 3115 3117
2079 1 3118 3119
2080 1 3118 3120
2081 1 3121 3122
2082 1 3121 3123
2083 1 3124 3125
2084 1 3124 3126
2085 1 3127 3128
2086 1 3127 3129
2087 1 3130 3131
2088 1 3130 3132
2089 1 3133 3134
2090 1 3133 3135
2091 1 3136 3137
2092 1 3136 3138
2093 1 3139 3140
2094 1 3139 3141
2095 1 3142 3143
2096 1 3142 3144
2097 1 3145 3146
2098 1 3145 3147
2099 1 3148 3149
2100 1 3148 3150
2101 1 3151 3152
2102 1 3151 3153
2103 1 3154 3155
2104 1 3154 3156
2105 1 3157 3158
2106 1 3157 3159
2107 1 3160 3161
2108 1 3160 3162
2109 1 3163 3164
2110 1 3163 3165
2111 1 3166 3167
2112 1 3166 3168
2113 1 3169 3170
2114 1 3169 3171
2115 1 3172 3173
2116 1 3172 3174
2117 1 3175 3176
2118 1 3175 3177
2119 1 3178 3179
2120 1 3178 3180
2121 1 3181 3182
2122 1 3181 3183
2123 1 3184 3185
2124 1 3184 3186
2125 1 3187 3188
2126 1 3187 3189
2127 1 3190 3191
2128 1 3190 3192
2129 1 3193 3194
2130 1 3193 3195
2131 1 3196 3197
2132 1 3196 3198
2133 1 3199 3200
2134 1 3199 3201
2135 1 3202 3203
2136 1 3202 3204
2137 1 3205 3206
2138 1 3205 3207
2139 1 3208 3209
2140 1 3208 3210
2141 1 3211 3212
2142 1 3211 3213
2143 1 3214 3215
2144 1 3214 3216
2145 1 3217 3218
2146 1 3217 3219
2147 1 3220 3221
2148 1 3220 3222
2149 1 3223 3224
2150 1 3223 3225
2151 1 3226 3227
2152 1 3226 3228
2153 1 3229 3230
2154 1 3229 3231
2155 1 3232 3233
2156 1 3232 3234
2157 1 3235 3236
2158 1 3235 3237
2159 1 3238 3239
2160 1 3238 3240
2161 1 3241 3242
2162 1 3241 3243
2163 1 3244 3245
2164 1 3244 3246
2165 1 3247 3248
2166 1 3247 3249
2167 1 3250 3251
2168 1 3250 3252
2169 1 3253 3254
2170 1 3253 3255
2171 1 3256 3257
2172 1 3256 3258
2173 1 3259 3260
2174 1 3259 3261
2175 1 3262 3263
2176 1 3262 3264
2177 1 3265 3266
2178 1 3265 3267
2179 1 3268 3269
2180 1 3268 3270
2181 1 3271 3272
2182 1 3271 3273
2183 1 3274 3275
2184 1 3274 3276
2185 1 3277 3278
2186 1 3277 3279
2187 1 3280 3281
2188 1 3280 3282
2189 1 3283 3284
2190 1 3283 3285
2191 1 3286 3287
2192 1 3286 3288
2193 1 3289 3290
2194 1 3289 3291
2195 1 3292 3293
2196 1 3292 3294
2197 1 3295 3296
2198 1 3295 3297
2199 1 3298 3299
2200 1 3298 3300
2201 1 3301 3302
2202 1 3301 3303
2203 1 3304 3305
2204 1 3304 3306
2205 1 3307 3308
2206 1 3307 3309
2207 1 3310 3311
2208 1 3310 3312
2209 1 3313 3314
2210 1 3313 3315
2211 1 3316 3317
2212 1 3316 3318
2213 1 3319 3320
2214 1 3319 3321
2215 1 3322 3323
2216 1 3322 3324
2217 1 3325 3326
2218 1 3325 3327
2219 1 3328 3329
2220 1 3328 3330
2221 1 3331 3332
2222 1 3331 3333
2223 1 3334 3335
2224 1 3334 3336
2225 1 3337 3338
2226 1 3337 3339
2227 1 3340 3341
2228 1 3340 3342
2229 1 3343 3344
2230 1 3343 3345
2231 1 3346 3347
2232 1 3346 3348
2233 1 3349 3350
2234 1 3349 3351
2235 1 3352 3353
2236 1 3352 3354
2237 1 3355 3356
2238 1 3355 3357
2239 1 3358 3359
2240 1 3358 3360
2241 1 3361 3362
2242 1 3361 3363
2243 1 3364 3365
2244 1 3364 3366
2245 1 3367 3368
2246 1 3367 3369
2247 1 3370 3371
2248 1 3370 3372
2249 1 3373 3374
2250 1 3373 3375
2251 1 3376 3377
2252 1 3376 3378
2253 1 3379 3380
2254 1 3379 3381
2255 1 3382 3383
2256 1 3382 3384
2257 1 3385 3386
2258 1 3385 3387
2259 1 3388 3389
2260 1 3388 3390
2261 1 3391 3392
2262 1 3391 3393
2263 1 3394 3395
2264 1 3394 3396
2265 1 3397 3398
2266 1 3397 3399
2267 1 3400 3401
2268 1 3400 3402
2269 1 3403 3404
2270 1 3403 3405
2271 1 3406 3407
2272 1 3406 3408
2273 1 3409 3410
2274 1 3409 3411
2275 1 3412 3413
2276 1 3412 3414
2277 1 3415 3416
2278 1 3415 3417
2279 1 3418 3419
2280 1 3418 3420
2281 1 3421 3422
2282 1 3421 3423
2283 1 3424 3425
2284 1 3424 3426
2285 1 3427 3428
2286 1 3427 3429
2287 1 3430 3431
2288 1 3430 3432
2289 1 3433 3434
2290 1 3433 3435
2291 1 3436 3437
2292 1 3436 3438
2293 1 3439 3440
2294 1 3439 3441
2295 1 3442 3443
2296 1 3442 3444
2297 1 3445 3446
2298 1 3445 3447
2299 1 3448 3449
2300 1 3448 3450
2301 1 3451 3452
2302 1 3451 3453
2303 1 3454 3455
2304 1 3454 3456
2305 1 3457 3458
2306 1 3457 3459
2307 1 3460 3461
2308 1 3460 3462
2309 1 3463 3464
2310 1 3463 3465
2311 1 3466 3467
2312 1 3466 3468
2313 1 3469 3470
2314 1 3469 3471
2315 1 3472 3473
2316 1 3472 3474
2317 1 3475 3476
2318 1 3475 3477
2319 1 3478 3479
2320 1 3478 3480
2321 1 3481 3482
2322 1 3481 3483
2323 1 3484 3485
2324 1 3484 3486
2325 1 3487 3488
2326 1 3487 3489
2327 1 3490 3491
2328 1 3490 3492
2329 1 3493 3494
2330 1 3493 3495
2331 1 3496 3497
2332 1 3496 3498
2333 1 3499 3500
2334 1 3499 3501
2335 1 3502 3503
2336 1 3502 3504
2337 1 3505 3506
2338 1 3505 3507
2339 1 3508 3509
2340 1 3508 3510
2341 1 3511 3512
2342 1 3511 3513
2343 1 3514 3515
2344 1 3514 3516
2345 1 3517 3518
2346 1 3517 3519
2347 1 3520 3521
2348 1 3520 3522
2349 1 3523 3524
2350 1 3523 3525
2351 1 3526 3527
2352 1 3526 3528
2353 1 3529 3530
2354 1 3529 3531
2355 1 3532 3533
2356 1 3532 3534
2357 1 3535 3536
2358 1 3535 3537
2359 1 3538 3539
2360 1 3538 3540
2361 1 3541 3542
2362 1 3541 3543
2363 1 3544 3545
2364 1 3544 3546
2365 1 3547 3548
2366 1 3547 3549
2367 1 3550 3551
2368 1 3550 3552
2369 1 3553 3554
2370 1 3553 3555
2371 1 3556 3557
2372 1 3556 3558
2373 1 3559 3560
2374 1 3559 3561
2375 1 3562 3563
2376 1 3562 3564
2377 1 3565 3566
2378 1 3565 3567
2379 1 3568 3569
2380 1 3568 3570
2381 1 3571 3572
2382 1 3571 3573
2383 1 3574 3575
2384 1 3574 3576
2385 1 3577 3578
2386 1 3577 3579
2387 1 3580 3581
2388 1 3580 3582
2389 1 3583 3584
2390 1 3583 3585
2391 1 3586 3587
2392 1 3586 3588
2393 1 3589 3590
2394 1 3589 3591
2395 1 3592 3593
2396 1 3592 3594
2397 1 3595 3596
2398 1 3595 3597
2399 1 3598 3599
2400 1 3598 3600
2401 1 3601 3602
2402 1 3601 3603
2403 1 3604 3605
2404 1 3604 3606
2405 1 3607 3608
2406 1 3607 3609
2407 1 3610 3611
2408 1 3610 3612
2409 1 3613 3614
2410 1 3613 3615
2411 1 3616 3617
2412 1 3616 3618
2413 1 3619 3620
2414 1 3619 3621
2415 1 3622 3623
2416 1 3622 3624
2417 1 3625 3626
2418 1 3625 3627
2419 1 3628 3629
2420 1 3628 3630
2421 1 3631 3632
2422 1 3631 3633
2423 1 3634 3635
2424 1 3634 3636
2425 1 3637 3638
2426 1 3637 3639
2427 1 3640 3641
2428 1 3640 3642
2429 1 3643 3644
2430 1 3643 3645
2431 1 3646 3647
2432 1 3646 3648
2433 1 3649 3650
2434 1 3649 3651
2435 1 3652 3653
2436 1 3652 3654
2437 1 3655 3656
2438 1 3655 3657
2439 1 3658 3659
2440 1 3658 3660
2441 1 3661 3662
2442 1 3661 3663
2443 1 3664 3665
2444 1 3664 3666
2445 1 3667 3668
2446 1 3667 3669
2447 1 3670 3671
2448 1 3670 3672
2449 1 3673 3674
2450 1 3673 3675
2451 1 3676 3677
2452 1 3676 3678
2453 1 3679 3680
2454 1 3679 3681
2455 1 3682 3683
2456 1 3682 3684
2457 1 3685 3686
2458 1 3685 3687
2459 1 3688 3689
2460 1 3688 3690
2461 1 3691 3692
2462 1 3691 3693
2463 1 3694 3695
2464 1 3694 3696
2465 1 3697 3698
2466 1 3697 3699
2467 1 3700 3701
2468 1 3700 3702
2469 1 3703 3704
2470 1 3703 3705
2471 1 3706 3707
2472 1 3706 3708
2473 1 3709 3710
2474 1 3709 3711
2475 1 3712 3713
2476 1 3712 3714
2477 1 3715 3716
2478 1 3715 3717
2479 1 3718 3719
2480 1 3718 3720
2481 1 3721 3722
2482 1 3721 3723
2483 1 3724 3725
2484 1 3724 3726
2485 1 3727 3728
2486 1 3727 3729
2487 1 3730 3731
2488 1 3730 3732
2489 1 3733 3734
2490 1 3733 3735
2491 1 3736 3737
2492 1 3736 3738
2493 1 3739 3740
2494 1 3739 3741
2495 1 3742 3743
2496 1 3742 3744
2497 1 3745 3746
2498 1 3745 3747
2499 1 3748 3749
2500 1 3748 3750
2501 1 3751 3752
2502 1 3751 3753
2503 1 3754 3755
2504 1 3754 3756
2505 1 3757 3758
2506 1 3757 3759
2507 1 3760 3761
2508 1 3760 3762
2509 1 3763 3764
2510 1 3763 3765
2511 1 3766 3767
2512 1 3766 3768
2513 1 3769 3770
2514 1 3769 3771
2515 1 3772 3773
2516 1 3772 3774
2517 1 3775 3776
2518 1 3775 3777
2519 1 3778 3779
2520 1 3778 3780
2521 1 3781 3782
2522 1 3781 3783
2523 1 3784 3785
2524 1 3784 3786
2525 1 3787 3788
2526 1 3787 3789
2527 1 3790 3791
2528 1 3790 3792
2529 1 3793 3794
2530 1 3793 3795
2531 1 3796 3797
2532 1 3796 3798
2533 1 3799 3800
2534 1 3799 3801
2535 1 3802 3803
2536 1 3802 3804
2537 1 3805 3806
2538 1 3805 3807
2539 1 3808 3809
2540 1 3808 3810
2541 1 3811 3812
2542 1 3811 3813
2543 1 3814 3815
2544 1 3814 3816
2545 1 3817 3818
2546 1 3817 3819
2547 1 3820 3821
2548 1 3820 3822
2549 1 3823 3824
2550 1 3823 3825
2551 1 3826 3827
2552 1 3826 3828
2553 1 3829 3830
2554 1 3829 3831
2555 1 3832 3833
2556 1 3832 3834
2557 1 3835 3836
2558 1 3835 3837
2559 1 3838 3839
2560 1 3838 3840
2561 1 3841 3842
2562 1 3841 3843
2563 1 3844 3845
2564 1 3844 3846
2565 1 3847 3848
2566 1 3847 3849
2567 1 3850 3851
2568 1 3850 3852
2569 1 3853 3854
2570 1 3853 3855
2571 1 3856 3857
2572 1 3856 3858
2573 1 3859 3860
2574 1 3859 3861
2575 1 3862 3863
2576 1 3862 3864
2577 1 3865 3866
2578 1 3865 3867
2579 1 3868 3869
2580 1 3868 3870
2581 1 3871 3872
2582 1 3871 3873
2583 1 3874 3875
2584 1 3874 3876
2585 1 3877 3878
2586 1 3877 3879
2587 1 3880 3881
2588 1 3880 3882
2589 1 3883 3884
2590 1 3883 3885
2591 1 3886 3887
2592 1 3886 3888
2593 1 3889 3890
2594 1 3889 3891
2595 1 3892 3893
2596 1 3892 3894
2597 1 3895 3896
2598 1 3895 3897
2599 1 3898 3899
2600 1 3898 3900
2601 1 3901 3902
2602 1 3901 3903
2603 1 3904 3905
2604 1 3904 3906
2605 1 3907 3908
2606 1 3907 3909
2607 1 3910 3911
2608 1 3910 3912
2609 1 3913 3914
2610 1 3913 3915
2611 1 3916 3917
2612 1 3916 3918
2613 1 3919 3920
2614 1 3919 3921
2615 1 3922 3923
2616 1 3922 3924
2617 1 3925 3926
2618 1 3925 3927
2619 1 3928 3929
2620 1 3928 3930
2621 1 3931 3932
2622 1 3931 3933
2623 1 3934 3935
2624 1 3934 3936
2625 1 3937 3938
2626 1 3937 3939
2627 1 3940 3941
2628 1 3940 3942
2629 1 3943 3944
2630 1 3943 3945
2631 1 3946 3947
2632 1 3946 3948
2633 1 3949 3950
2634 1 3949 3951
2635 1 3952 3953
2636 1 3952 3954
2637 1 3955 3956
2638 1 3955 3957
2639 1 3958 3959
2640 1 3958 3960
2641 1 3961 3962
2642 1 3961 3963
2643 1 3964 3965
2644 1 3964 3966
2645 1 3967 3968
2646 1 3967 3969
2647 1 3970 3971
2648 1 3970 3972
2649 1 3973 3974
2650 1 3973 3975
2651 1 3976 3977
2652 1 3976 3978
2653 1 3979 3980
2654 1 3979 3981
2655 1 3982 3983
2656 1 3982 3984
2657 1 3985 3986
2658 1 3985 3987
2659 1 3988 3989
2660 1 3988 3990
2661 1 3991 3992
2662 1 3991 3993
2663 1 3994 3995
2664 1 3994 3996
2665 1 3997 3998
2666 1 3997 3999
2667 1 4000 4001
2668 1 4000 4002
2669 1 4003 4004
2670 1 4003 4005
2671 1 4006 4007
2672 1 4006 4008
2673 1 4009 4010
2674 1 4009 4011
2675 1 4012 4013
2676 1 4012 4014
2677 1 4015 4016
2678 1 4015 4017
2679 1 4018 4019
2680 1 4018 4020
2681 1 4021 4022
2682 1 4021 4023
2683 1 4024 4025
2684 1 4024 4026
2685 1 4027 4028
2686 1 4027 4029
2687 1 4030 4031
2688 1 4030 4032
2689 1 4033 4034
2690 1 4033 4035
2691 1 4036 4037
2692 1 4036 4038
2693 1 4039 4040
2694 1 4039 4041
2695 1 4042 4043
2696 1 4042 4044
2697 1 4045 4046
2698 1 4045 4047
2699 1 4048 4049
2700 1 4048 4050
2701 1 4051 4052
2702 1 4051 4053
2703 1 4054 4055
2704 1 4054 4056
2705 1 4057 4058
2706 1 4057 4059
2707 1 4060 4061
2708 1 4060 4062
2709 1 4063 4064
2710 1 4063 4065
2711 1 4066 4067
2712 1 4066 4068
2713 1 4069 4070
2714 1 4069 4071
2715 1 4072 4073
2716 1 4072 4074
2717 1 4075 4076
2718 1 4075 4077
2719 1 4078 4079
2720 1 4078 4080
2721 1 4081 4082
2722 1 4081 4083
2723 1 4084 4085
2724 1 4084 4086
2725 1 4087 4088
2726 1 4087 4089
2727 1 4090 4091
2728 1 4090 4092
2729 1 4093 4094
2730 1 4093 4095
2731 1 4096 4097
2732 1 4096 4098
2733 1 4099 4100
2734 1 4099 4101
2735 1 4102 4103
2736 1 4102 4104
2737 1 4105 4106
2738 1 4105 4107
2739 1 4108 4109
2740 1 4108 4110
2741 1 4111 4112
2742 1 4111 4113
2743 1 4114 4115
2744 1 4114 4116
2745 1 4117 4118
2746 1 4117 4119
2747 1 4120 4121
2748 1 4120 4122
2749 1 4123 4124
2750 1 4123 4125
2751 1 4126 4127
2752 1 4126 4128
2753 1 4129 4130
2754 1 4129 4131
2755 1 4132 4133
2756 1 4132 4134
2757 1 4135 4136
2758 1 4135 4137
2759 1 4138 4139
2760 1 4138 4140
2761 1 4141 4142
2762 1 4141 4143
2763 1 4144 4145
2764 1 4144 4146
2765 1 4147 4148
2766 1 4147 4149
2767 1 4150 4151
2768 1 4150 4152
2769 1 4153 4154
2770 1 4153 4155
2771 1 4156 4157
2772 1 4156 4158
2773 1 4159 4160
2774 1 4159 4161
2775 1 4162 4163
2776 1 4162 4164
2777 1 4165 4166
2778 1 4165 4167
2779 1 4168 4169
2780 1 4168 4170
2781 1 4171 4172
2782 1 4171 4173
2783 1 4174 4175
2784 1 4174 4176
2785 1 4177 4178
2786 1 4177 4179
2787 1 4180 4181
2788 1 4180 4182
2789 1 4183 4184
2790 1 4183 4185
2791 1 4186 4187
2792 1 4186 4188
2793 1 4189 4190
2794 1 4189 4191
2795 1 4192 4193
2796 1 4192 4194
2797 1 4195 4196
2798 1 4195 4197
2799 1 4198 4199
2800 1 4198 4200
2801 1 4201 4202
2802 1 4201 4203
2803 1 4204 4205
2804 1 4204 4206
2805 1 4207 4208
2806 1 4207 4209
2807 1 4210 4211
2808 1 4210 4212
2809 1 4213 4214
2810 1 4213 4215
2811 1 4216 4217
2812 1 4216 4218
2813 1 4219 4220
2814 1 4219 4221
2815 1 4222 4223
2816 1 4222 4224
2817 1 4225 4226
2818 1 4225 4227
2819 1 4228 4229
2820 1 4228 4230
2821 1 4231 4232
2822 1 4231 4233
2823 1 4234 4235
2824 1 4234 4236
2825 1 4237 4238
2826 1 4237 4239
2827 1 4240 4241
2828 1 4240 4242
2829 1 4243 4244
2830 1 4243 4245
2831 1 4246 4247
2832 1 4246 4248
2833 1 4249 4250
2834 1 4249 4251
2835 1 4252 4253
2836 1 4252 4254
2837 1 4255 4256
2838 1 4255 4257
2839 1 4258 4259
2840 1 4258 4260
2841 1 4261 4262
2842 1 4261 4263
2843 1 4264 4265
2844 1 4264 4266
2845 1 4267 4268
2846 1 4267 4269
2847 1 4270 4271
2848 1 4270 4272
2849 1 4273 4274
2850 1 4273 4275
2851 1 4276 4277
2852 1 4276 4278
2853 1 4279 4280
2854 1 4279 4281
2855 1 4282 4283
2856 1 4282 4284
2857 1 4285 4286
2858 1 4285 4287
2859 1 4288 4289
2860 1 4288 4290
2861 1 4291 4292
2862 1 4291 4293
2863 1 4294 4295
2864 1 4294 4296
2865 1 4297 4298
2866 1 4297 4299
2867 1 4300 4301
2868 1 4300 4302
2869 1 4303 4304
2870 1 4303 4305
2871 1 4306 4307
2872 1 4306 4308
2873 1 4309 4310
2874 1 4309 4311
2875 1 4312 4313
2876 1 4312 4314
2877 1 4315 4316
2878 1 4315 4317
2879 1 4318 4319
2880 1 4318 4320
2881 1 4321 4322
2882 1 4321 4323
2883 1 4324 4325
2884 1 4324 4326
2885 1 4327 4328
2886 1 4327 4329
2887 1 4330 4331
2888 1 4330 4332
2889 1 4333 4334
2890 1 4333 4335
2891 1 4336 4337
2892 1 4336 4338
2893 1 4339 4340
2894 1 4339 4341
2895 1 4342 4343
2896 1 4342 4344
2897 1 4345 4346
2898 1 4345 4347
2899 1 4348 4349
2900 1 4348 4350
2901 1 4351 4352
2902 1 4351 4353
2903 1 4354 4355
2904 1 4354 4356
2905 1 4357 4358
2906 1 4357 4359
2907 1 4360 4361
2908 1 4360 4362
2909 1 4363 4364
2910 1 4363 4365
2911 1 4366 4367
2912 1 4366 4368
2913 1 4369 4370
2914 1 4369 4371
2915 1 4372 4373
2916 1 4372 4374
2917 1 4375 4376
2918 1 4375 4377
2919 1 4378 4379
2920 1 4378 4380
2921 1 4381 4382
2922 1 4381 4383
2923 1 4384 4385
2924 1 4384 4386
2925 1 4387 4388
2926 1 4387 4389
2927 1 4390 4391
2928 1 4390 4392
2929 1 4393 4394
2930 1 4393 4395
2931 1 4396 4397
2932 1 4396 4398
2933 1 4399 4400
2934 1 4399 4401
2935 1 4402 4403
2936 1 4402 4404
2937 1 4405 4406
2938 1 4405 4407
2939 1 4408 4409
2940 1 4408 4410
2941 1 4411 4412
2942 1 4411 4413
2943 1 4414 4415
2944 1 4414 4416
2945 1 4417 4418
2946 1 4417 4419
2947 1 4420 4421
2948 1 4420 4422
2949 1 4423 4424
2950 1 4423 4425
2951 1 4426 4427
2952 1 4426 4428
2953 1 4429 4430
2954 1 4429 4431
2955 1 4432 4433
2956 1 4432 4434
2957 1 4435 4436
2958 1 4435 4437
2959 1 4438 4439
2960 1 4438 4440
2961 1 4441 4442
2962 1 4441 4443
2963 1 4444 4445
2964 1 4444 4446
2965 1 4447 4448
2966 1 4447 4449
2967 1 4450 4451
2968 1 4450 4452
2969 1 4453 4454
2970 1 4453 4455
2971 1 4456 4457
2972 1 4456 4458
2973 1 4459 4460
2974 1 4459 4461
2975 1 4462 4463
2976 1 4462 4464
2977 1 4465 4466
2978 1 4465 4467
2979 1 4468 4469
2980 1 4468 4470
2981 1 4471 4472
2982 1 4471 4473
2983 1 4474 4475
2984 1 4474 4476
2985 1 4477 4478
2986 1 4477 4479
2987 1 4480 4481
2988 1 4480 4482
2989 1 4483 4484
2990 1 4483 4485
2991 1 4486 4487
2992 1 4486 4488
2993 1 4489 4490
2994 1 4489 4491
2995 1 4492 4493
2996 1 4492 4494
2997 1 4495 4496
2998 1 4495 4497
2999 1 4498 4499
3000 1 4498 4500
3001 1 4501 4502
3002 1 4501 4503
3003 1 4504 4505
3004 1 4504 4506
3005 1 4507 4508
3006 1 4507 4509
3007 1 4510 4511
3008 1 4510 4512
3009 1 4513 4514
3010 1 4513 4515
3011 1 4516 4517
3012 1 4516 4518
3013 1 4519 4520
3014 1 4519 4521
3015 1 4522 4523
3016 1 4522 4524
3017 1 4525 4526
3018 1 4525 4527
3019 1 4528 4529
3020 1 4528 4530
3021 1 4531 4532
3022 1 4531 4533
3023 1 4534 4535
3024 1 4534 4536
3025 1 4537 4538
3026 1 4537 4539
3027 1 4540 4541
3028 1 4540 4542
3029 1 4543 4544
3030 1 4543 4545
3031 1 4546 4547
3032 1 4546 4548
3033 1 4549 4550
3034 1 4549 4551
3035 1 4552 4553
3036 1 4552 4554
3037 1 4555 4556
3038 1 4555 4557
3039 1 4558 4559
3040 1 4558 4560
3041 1 4561 4562
3042 1 4561 4563
3043 1 4564 4565
3044 1 4564 4566
3045 1 4567 4568
3046 1 4567 4569
3047 1 4570 4571
3048 1 4570 4572
3049 1 4573 4574
3050 1 4573 4575
3051 1 4576 4577
3052 1 4576 4578
3053 1 4579 4580
3054 1 4579 4581
3055 1 4582 4583
3056 1 4582 4584
3057 1 4585 4586
3058 1 4585 4587
3059 1 4588 4589
3060 1 4588 4590
3061 1 4591 4592
3062 1 4591 4593
3063 1 4594 4595
3064 1 4594 4596
3065 1 4597 4598
3066 1 4597 4599
3067 1 4600 4601
3068 1 4600 4602
3069 1 4603 4604
3070 1 4603 4605
3071 1 4606 4607
3072 1 4606 4608
3073 1 4609 4610
3074 1 4609 4611
3075 1 4612 4613
3076 1 4612 4614
3077 1 4615 4616
3078 1 4615 4617
3079 1 4618 4619
3080 1 4618 4620
3081 1 4621 4622
3082 1 4621 4623
3083 1 4624 4625
3084 1 4624 4626
3085 1 4627 4628
3086 1 4627 4629
3087 1 4630 4631
3088 1 4630 4632
3089 1 4633 4634
3090 1 4633 4635
3091 1 4636 4637
3092 1 4636 4638
3093 1 4639 4640
3094 1 4639 4641
3095 1 4642 4643
3096 1 4642 4644
3097 1 4645 4646
3098 1 4645 4647
3099 1 4648 4649
3100 1 4648 4650
3101 1 4651 4652
3102 1 4651 4653
3103 1 4654 4655
3104 1 4654 4656
3105 1 4657 4658
3106 1 4657 4659
3107 1 4660 4661
3108 1 4660 4662
3109 1 4663 4664
3110 1 4663 4665
3111 1 4666 4667
3112 1 4666 4668
3113 1 4669 4670
3114 1 4669 4671
3115 1 4672 4673
3116 1 4672 4674
3117 1 4675 4676
3118 1 4675 4677
3119 1 4678 4679
3120 1 4678 4680
3121 1 4681 4682
3122 1 4681 4683
3123 1 4684 4685
3124 1 4684 4686
3125 1 4687 4688
3126 1 4687 4689
3127 1 4690 4691
3128 1 4690 4692
3129 1 4693 4694
3130 1 4693 4695
3131 1 4696 4697
3132 1 4696 4698
3133 1 4699 4700
3134 1 4699 4701
3135 1 4702 4703
3136 1 4702 4704
3137 1 4705 4706
3138 1 4705 4707
3139 1 4708 4709
3140 1 4708 4710
3141 1 4711 4712
3142 1 4711 4713
3143 1 4714 4715
3144 1 4714 4716
3145 1 4717 4718
3146 1 4717 4719
3147 1 4720 4721
3148 1 4720 4722
3149 1 4723 4724
3150 1 4723 4725
3151 1 4726 4727
3152 1 4726 4728
3153 1 4729 4730
3154 1 4729 4731
3155 1 4732 4733
3156 1 4732 4734
3157 1 4735 4736
3158 1 4735 4737
3159 1 4738 4739
3160 1 4738 4740
3161 1 4741 4742
3162 1 4741 4743
3163 1 4744 4745
3164 1 4744 4746
3165 1 4747 4748
3166 1 4747 4749
3167 1 4750 4751
3168 1 4750 4752
3169 1 4753 4754
3170 1 4753 4755
3171 1 4756 4757
3172 1 4756 4758
3173 1 4759 4760
3174 1 4759 4761
3175 1 4762 4763
3176 1 4762 4764
3177 1 4765 4766
3178 1 4765 4767
3179 1 4768 4769
3180 1 4768 4770
3181 1 4771 4772
3182 1 4771 4773
3183 1 4774 4775
3184 1 4774 4776
3185 1 4777 4778
3186 1 4777 4779
3187 1 4780 4781
3188 1 4780 4782
3189 1 4783 4784
3190 1 4783 4785
3191 1 4786 4787
3192 1 4786 4788
3193 1 4789 4790
3194 1 4789 4791
3195 1 4792 4793
3196 1 4792 4794
3197 1 4795 4796
3198 1 4795 4797
3199 1 4798 4799
3200 1 4798 4800
3201 1 4801 4802
3202 1 4801 4803
3203 1 4804 4805
3204 1 4804 4806
3205 1 4807 4808
3206 1 4807 4809
3207 1 4810 4811
3208 1 4810 4812
3209 1 4813 4814
3210 1 4813 4815
3211 1 4816 4817
3212 1 4816 4818
3213 1 4819 4820
3214 1 4819 4821
3215 1 4822 4823
3216 1 4822 4824
3217 1 4825 4826
3218 1 4825 4827
3219 1 4828 4829
3220 1 4828 4830
3221 1 4831 4832
3222 1 4831 4833
3223 1 4834 4835
3224 1 4834 4836
3225 1 4837 4838
3226 1 4837 4839
3227 1 4840 4841
3228 1 4840 4842
3229 1 4843 4844
3230 1 4843 4845
3231 1 4846 4847
3232 1 4846 4848
3233 1 4849 4850
3234 1 4849 4851
3235 1 4852 4853
3236 1 4852 4854
3237 1 4855 4856
3238 1 4855 4857
3239 1 4858 4859
3240 1 4858 4860
3241 1 4861 4862
3242 1 4861 4863
3243 1 4864 4865
3244 1 4864 4866
3245 1 4867 4868
3246 1 4867 4869
3247 1 4870 4871
3248 1 4870 4872
3249 1 4873 4874
3250 1 4873 4875
3251 1 4876 4877
3252 1 4876 4878
3253 1 4879 4880
3254 1 4879 4881
3255 1 4882 4883
3256 1 4882 4884
3257 1 4885 4886
3258 1 4885 4887
3259 1 4888 4889
3260 1 4888 4890
3261 1 4891 4892
3262 1 4891 4893
3263 1 4894 4895
3264 1 4894 4896
3265 1 4897 4898
3266 1 4897 4899
3267 1 4900 4901
3268 1 4900 4902
3269 1 4903 4904
3270 1 4903 4905
3271 1 4906 4907
3272 1 4906 4908
3273 1 4909 4910
3274 1 4909 4911
3275 1 4912 4913
3276 1 4912 4914
3277 1 4915 4916
3278 1 4915 4917
3279 1 4918 4919
3280 1 4918 4920
3281 1 4921 4922
3282 1 4921 4923
3283 1 4924 4925
3284 1 4924 4926
3285 1 4927 4928
3286 1 4927 4929
3287 1 4930 4931
3288 1 4930 4932
3289 1 4933 4934
3290 1 4933 4935
3291 1 4936 4937
3292 1 4936 4938
3293 1 4939 4940
3294 1 4939 4941
3295 1 4942 4943
3296 1 4942 4944
3297 1 4945 4946
3298 1 4945 4947
3299 1 4948 4949
3300 1 4948 4950
3301 1 4951 4952
3302 1 4951 4953
3303 1 4954 4955
3304 1 4954 4956
3305 1 4957 4958
3306 1 4957 4959
3307 1 4960 4961
3308 1 4960 4962
3309 1 4963 4964
3310 1 4963 4965
3311 1 4966 4967
3312 1 4966 4968
3313 1 4969 4970
3314 1 4969 4971
3315 1 4972 4973
3316 1 4972 4974
3317 1 4975 4976
3318 1 4975 4977
3319 1 4978 4979
3320 1 4978 4980
3321 1 4981 4982
3322 1 4981 4983
3323 1 4984 4985
3324 1 4984 4986
3325 1 4987 4988
3326 1 4987 4989
3327 1 4990 4991
3328 1 4990 4992
3329 1 4993 4994
3330 1 4993 4995
3331 1 4996 4997
3332 1 4996 4998
3333 1 4999 5000
3334 1 4999 5001
3335 1 5002 5003
3336 1 5002 5004
3337 1 5005 5006
3338 1 5005 5007
3339 1 5008 5009
3340 1 5008 5010
3341 1 5011 5012
3342 1 5011 5013
3343 1 5014 5015
3344 1 5014 5016
3345 1 5017 5018
3346 1 5017 5019
3347 1 5020 5021
3348 1 5020 5022
3349 1 5023 5024
3350 1 5023 5025
3351 1 5026 5027
3352 1 5026 5028
3353 1 5029 5030
3354 1 5029 5031
3355 1 5032 5033
3356 1 5032 5034
3357 1 5035 5036
3358 1 5035 5037
3359 1 5038 5039
3360 1 5038 5040
3361 1 5041 5042
3362 1 5041 5043
3363 1 5044 5045
3364 1 5044 5046
3365 1 5047 5048
3366 1 5047 5049
3367 1 5050 5051
3368 1 5050 5052
3369 1 5053 5054
3370 1 5053 5055
3371 1 5056 5057
3372 1 5056 5058
3373 1 5059 5060
3374 1 5059 5061
3375 1 5062 5063
3376 1 5062 5064
3377 1 5065 5066
3378 1 5065 5067
3379 1 5068 5069
3380 1 5068 5070
3381 1 5071 5072
3382 1 5071 5073
3383 1 5074 5075
3384 1 5074 5076
3385 1 5077 5078
3386 1 5077 5079
3387 1 5080 5081
3388 1 5080 5082
3389 1 5083 5084
3390 1 5083 5085
3391 1 5086 5087
3392 1 5086 5088
3393 1 5089 5090
3394 1 5089 5091
3395 1 5092 5093
3396 1 5092 5094
3397 1 5095 5096
3398 1 5095 5097
3399 1 5098 5099
3400 1 5098 5100
3401 1 5101 5102
3402 1 5101 5103
3403 1 5104 5105
3404 1 5104 5106
3405 1 5107 5108
3406 1 5107 5109
3407 1 5110 5111
3408 1 5110 5112
3409 1 5113 5114
3410 1 5113 5115
3411 1 5116 5117
3412 1 5116 5118
3413 1 5119 5120
3414 1 5119 5121
3415 1 5122 5123
3416 1 5122 5124
3417 1 5125 5126
3418 1 5125 5127
3419 1 5128 5129
3420 1 5128 5130
3421 1 5131 5132
3422 1 5131 5133
3423 1 5134 5135
3424 1 5134 5136
3425 1 5137 5138
3426 1 5137 5139
3427 1 5140 5141
3428 1 5140 5142
3429 1 5143 5144
3430 1 5143 5145
3431 1 5146 5147
3432 1 5146 5148
3433 1 5149 5150
3434 1 5149 5151
3435 1 5152 5153
3436 1 5152 5154
3437 1 5155 5156
3438 1 5155 5157
3439 1 5158 5159
3440 1 5158 5160
3441 1 5161 5162
3442 1 5161 5163
3443 1 5164 5165
3444 1 5164 5166
3445 1 5167 5168
3446 1 5167 5169
3447 1 5170 5171
3448 1 5170 5172
3449 1 5173 5174
3450 1 5173 5175
3451 1 5176 5177
3452 1 5176 5178
3453 1 5179 5180
3454 1 5179 5181
3455 1 5182 5183
3456 1 5182 5184
3457 1 5185 5186
3458 1 5185 5187
3459 1 5188 5189
3460 1 5188 5190
3461 1 5191 5192
3462 1 5191 5193
3463 1 5194 5195
3464 1 5194 5196
3465 1 5197 5198
3466 1 5197 5199
3467 1 5200 5201
3468 1 5200 5202
3469 1 5203 5204
3470 1 5203 5205
3471 1 5206 5207
3472 1 5206 5208
3473 1 5209 5210
3474 1 5209 5211
3475 1 5212 5213
3476 1 5212 5214
3477 1 5215 5216
3478 1 5215 5217
3479 1 5218 5219
3480 1 5218 5220
3481 1 5221 5222
3482 1 5221 5223
3483 1 5224 5225
3484 1 5224 5226
3485 1 5227 5228
3486 1 5227 5229
3487 1 5230 5231
3488 1 5230 5232
3489 1 5233 5234
3490 1 5233 5235
3491 1 5236 5237
3492 1 5236 5238
3493 1 5239 5240
3494 1 5239 5241
3495 1 5242 5243
3496 1 5242 5244
3497 1 5245 5246
3498 1 5245 5247
3499 1 5248 5249
3500 1 5248 5250
3501 1 5251 5252
3502 1 5251 5253
3503 1 5254 5255
3504 1 5254 5256
3505 1 5257 5258
3506 1 5257 5259
3507 1 5260 5261
3508 1 5260 5262
3509 1 5263 5264
3510 1 5263 5265
3511 1 5266 5267
3512 1 5266 5268
3513 1 5269 5270
3514 1 5269 5271
3515 1 5272 5273
3516 1 5272 5274
3517 1 5275 5276
3518 1 5275 5277
3519 1 5278 5279
3520 1 5278 5280
3521 1 5281 5282
3522 1 5281 5283
3523 1 5284 5285
3524 1 5284 5286
3525 1 5287 5288
3526 1 5287 5289
3527 1 5290 5291
3528 1 5290 5292
3529 1 5293 5294
3530 1 5293 5295
3531 1 5296 5297
3532 1 5296 5298
3533 1 5299 5300
3534 1 5299 5301
3535 1 5302 5303
3536 1 5302 5304
3537 1 5305 5306
3538 1 5305 5307
3539 1 5308 5309
3540 1 5308 5310
3541 1 5311 5312
3542 1 5311 5313
3543 1 5314 5315
3544 1 5314 5316
3545 1 5317 5318
3546 1 5317 5319
3547 1 5320 5321
3548 1 5320 5322
3549 1 5323 5324
3550 1 5323 5325
3551 1 5326 5327
3552 1 5326 5328
3553 1 5329 5330
3554 1 5329 5331
3555 1 5332 5333
3556 1 5332 5334
3557 1 5335 5336
3558 1 5335 5337
3559 1 5338 5339
3560 1 5338 5340
3561 1 5341 5342
3562 1 5341 5343
3563 1 5344 5345
3564 1 5344 5346
3565 1 5347 5348
3566 1 5347 5349
3567 1 5350 5351
3568 1 5350 5352
3569 1 5353 5354
3570 1 5353 5355
3571 1 5356 5357
3572 1 5356 5358
3573 1 5359 5360
3574 1 5359 5361
3575 1 5362 5363
3576 1 5362 5364
3577 1 5365 5366
3578 1 5365 5367
3579 1 5368 5369
3580 1 5368 5370
3581 1 5371 5372
3582 1 5371 5373
3583 1 5374 5375
3584 1 5374 5376
3585 1 5377 5378
3586 1 5377 5379
3587 1 5380 5381
3588 1 5380 5382
3589 1 5383 5384
3590 1 5383 5385
3591 1 5386 5387
3592 1 5386 5388
3593 1 5389 5390
3594 1 5389 5391
3595 1 5392 5393
3596 1 5392 5394
3597 1 5395 5396
3598 1 5395 5397
3599 1 5398 5399
3600 1 5398 5400
3601 1 5401 5402
3602 1 5401 5403
3603 1 5404 5405
3604 1 5404 5406
3605 1 5407 5408
3606 1 5407 5409
3607 1 5410 5411
3608 1 5410 5412
3609 1 5413 5414
3610 1 5413 5415
3611 1 5416 5417
3612 1 5416 5418
3613 1 5419 5420
3614 1 5419 5421
3615 1 5422 5423
3616 1 5422 5424
3617 1 5425 5426
3618 1 5425 5427
3619 1 5428 5429
3620 1 5428 5430
3621 1 5431 5432
3622 1 5431 5433
3623 1 5434 5435
3624 1 5434 5436
3625 1 5437 5438
3626 1 5437 5439
3627 1 5440 5441
3628 1 5440 5442
3629 1 5443 5444
3630 1 5443 5445
3631 1 5446 5447
3632 1 5446 5448
3633 1 5449 5450
3634 1 5449 5451
3635 1 5452 5453
3636 1 5452 5454
3637 1 5455 5456
3638 1 5455 5457
3639 1 5458 5459
3640 1 5458 5460
3641 1 5461 5462
3642 1 5461 5463
3643 1 5464 5465
3644 1 5464 5466
3645 1 5467 5468
3646 1 5467 5469
3647 1 5470 5471
3648 1 5470 5472
3649 1 5473 5474
3650 1 5473 5475
3651 1 5476 5477
3652 1 5476 5478
3653 1 5479 5480
3654 1 5479 5481
3655 1 5482 5483
3656 1 5482 5484
3657 1 5485 5486
3658 1 5485 5487
3659 1 5488 5489
3660 1 5488 5490
3661 1 5491 5492
3662 1 5491 5493
3663 1 5494 5495
3664 1 5494 5496
3665 1 5497 5498
3666 1 5497 5499
3667 1 5500 5501
3668 1 5500 5502
3669 1 5503 5504
3670 1 5503 5505
3671 1 5506 5507
3672 1 5506 5508
3673 1 5509 5510
3674 1 5509 5511
3675 1 5512 5513
3676 1 5512 5514
3677 1 5515 5516
3678 1 5515 5517
3679 1 5518 5519
3680 1 5518 5520
3681 1 5521 5522
3682 1 5521 5523
3683 1 5524 5525
3684 1 5524 5526
3685 1 5527 5528
3686 1 5527 5529
3687 1 5530 5531
3688 1 5530 5532
3689 1 5533 5534
3690 1 5533 5535
3691 1 5536 5537
3692 1 5536 5538
3693 1 5539 5540
3694 1 5539 5541
3695 1 5542 5543
3696 1 5542 5544
3697 1 5545 5546
3698 1 5545 5547
3699 1 5548 5549
3700 1 5548 5550
3701 1 5551 5552
3702 1 5551 5553
3703 1 5554 5555
3704 1 5554 5556
3705 1 5557 5558
3706 1 5557 5559
3707 1 5560 5561
3708 1 5560 5562
3709 1 5563 5564
3710 1 5563 5565
3711 1 5566 5567
3712 1 5566 5568
3713 1 5569 5570
3714 1 5569 5571
3715 1 5572 5573
3716 1 5572 5574
3717 1 5575 5576
3718 1 5575 5577
3719 1 5578 5579
3720 1 5578 5580
3721 1 5581 5582
3722 1 5581 5583
3723 1 5584 5585
3724 1 5584 5586
3725 1 5587 5588
3726 1 5587 5589
3727 1 5590 5591
3728 1 5590 5592
3729 1 5593 5594
3730 1 5593 5595
3731 1 5596 5597
3732 1 5596 5598
3733 1 5599 5600
3734 1 5599 5601
3735 1 5602 5603
3736 1 5602 5604
3737 1 5605 5606
3738 1 5605 5607
3739 1 5608 5609
3740 1 5608 5610
3741 1 5611 5612
3742 1 5611 5613
3743 1 5614 5615
3744 1 5614 5616
3745 1 5617 5618
3746 1 5617 5619
3747 1 5620 5621
3748 1 5620 5622
3749 1 5623 5624
3750 1 5623 5625
3751 1 5626 5627
3752 1 5626 5628
3753 1 5629 5630
3754 1 5629 5631
3755 1 5632 5633
3756 1 5632 5634
3757 1 5635 5636
3758 1 5635 5637
3759 1 5638 5639
3760 1 5638 5640
3761 1 5641 5642
3762 1 5641 5643
3763 1 5644 5645
3764 1 5644 5646
3765 1 5647 5648
3766 1 5647 5649
3767 1 5650 5651
3768 1 5650 5652
3769 1 5653 5654
3770 1 5653 5655
3771 1 5656 5657
3772 1 5656 5658
3773 1 5659 5660
3774 1 5659 5661
3775 1 5662 5663
3776 1 5662 5664
3777 1 5665 5666
3778 1 5665 5667
3779 1 5668 5669
3780 1 5668 5670
3781 1 5671 5672
3782 1 5671 5673
3783 1 5674 5675
3784 1 5674 5676
3785 1 5677 5678
3786 1 5677 5679
3787 1 5680 5681
3788 1 5680 5682
3789 1 5683 5684
3790 1 5683 5685
3791 1 5686 5687
3792 1 5686 5688
3793 1 5689 5690
3794 1 5689 5691
3795 1 5692 5693
3796 1 5692 5694
3797 1 5695 5696
3798 1 5695 5697
3799 1 5698 5699
3800 1 5698 5700
3801 1 5701 5702
3802 1 5701 5703
3803 1 5704 5705
3804 1 5704 5706
3805 1 5707 5708
3806 1 5707 5709
3807 1 5710 5711
3808 1 5710 5712
3809 1 5713 5714
3810 1 5713 5715
3811 1 5716 5717
3812 1 5716 5718
3813 1 5719 5720
3814 1 5719 5721
3815 1 5722 5723
3816 1 5722 5724
3817 1 5725 5726
3818 1 5725 5727
3819 1 5728 5729
3820 1 5728 5730
3821 1 5731 5732
3822 1 5731 5733
3823 1 5734 5735
3824 1 5734 5736
3825 1 5737 5738
3826 1 5737 5739
3827 1 5740 5741
3828 1 5740 5742
3829 1 5743 5744
3830 1 5743 5745
3831 1 5746 5747
3832 1 5746 5748
3833 1 5749 5750
3834 1 5749 5751
3835 1 5752 5753
3836 1 5752 5754
3837 1 5755 5756
3838 1 5755 5757
3839 1 5758 5759
3840 1 5758 5760
3841 1 5761 5762
3842 1 5761 5763
3843 1 5764 5765
3844 1 5764 5766
3845 1 5767 5768
3846 1 5767 5769
3847 1 5770 5771
3848 1 5770 5772
3849 1 5773 5774
3850 1 5773 5775
3851 1 5776 5777
3852 1 5776 5778
3853 1 5779 5780
3854 1 5779 5781
3855 1 5782 5783
3856 1 5782 5784
3857 1 5785 5786
3858 1 5785 5787
3859 1 5788 5789
3860 1 5788 5790
3861 1 5791 5792
3862 1 5791 5793
3863 1 5794 5795
3864 1 5794 5796
3865 1 5797 5798
3866 1 5797 5799
3867 1 5800 5801
3868 1 5800 5802
3869 1 5803 5804
3870 1 5803 5805
3871 1 5806 5807
3872 1 5806 5808
3873 1 5809 5810
3874 1 5809 5811
3875 1 5812 5813
3876 1 5812 5814
3877 1 5815 5816
3878 1 5815 5817
3879 1 5818 5819
3880 1 5818 5820
3881 1 5821 5822
3882 1 5821 5823
3883 1 5824 5825
3884 1 5824 5826
3885 1 5827 5828
3886 1 5827 5829
3887 1 5830 5831
3888 1 5830 5832
3889 1 5833 5834
3890 1 5833 5835
3891 1 5836 5837
3892 1 5836 5838
3893 1 5839 5840
3894 1 5839 5841
3895 1 5842 5843
3896 1 5842 5844
3897 1 5845 5846
3898 1 5845 5847
3899 1 5848 5849
3900 1 5848 5850
3901 1 5851 5852
3902 1 5851 5853
3903 1 5854 5855
3904 1 5854 5856
3905 1 5857 5858
3906 1 5857 5859
3907 1 5860 5861
3908 1 5860 5862
3909 1 5863 5864
3910 1 5863 5865
3911 1 5866 5867
3912 1 5866 5868
3913 1 5869 5870
3914 1 5869 5871
3915 1 5872 5873
3916 1 5872 5874
3917 1 5875 5876
3918 1 5875 5877
3919 1 5878 5879
3920 1 5878 5880
3921 1 5881 5882
3922 1 5881 5883
3923 1 5884 5885
3924 1 5884 5886
3925 1 5887 5888
3926 1 5887 5889
3927 1 5890 5891
3928 1 5890 5892
3929 1 5893 5894
3930 1 5893 5895
3931 1 5896 5897
3932 1 5896 5898
3933 1 5899 5900
3934 1 5899 5901
3935 1 5902 5903
3936 1 5902 5904
3937 1 5905 5906
3938 1 5905 5907
3939 1 5908 5909
3940 1 5908 5910
3941 1 5911 5912
3942 1 5911 5913
3943 1 5914 5915
3944 1 5914 5916
3945 1 5917 5918
3946 1 5917 5919
3947 1 5920 5921
3948 1 5920 5922
3949 1 5923 5924
3950 1 5923 5925
3951 1 5926 5927
3952 1 5926 5928
3953 1 5929 5930
3954 1 5929 5931
3955 1 5932 5933
3956 1 5932 5934
3957 1 5935 5936
3958 1 5935 5937
3959 1 5938 5939
3960 1 5938 5940
3961 1 5941 5942
3962 1 5941 5943
3963 1 5944 5945
3964 1 5944 5946
3965 1 5947 5948
3966 1 5947 5949
3967 1 5950 5951
3968 1 5950 5952
3969 1 5953 5954
3970 1 5953 5955
3971 1 5956 5957
3972 1 5956 5958
3973 1 5959 5960
3974 1 5959 5961
3975 1 5962 5963
3976 1 5962 5964
3977 1 5965 5966
3978 1 5965 5967
3979 1 5968 5969
3980 1 5968 5970
3981 1 5971 5972
3982 1 5971 5973
3983 1 5974 5975
3984 1 5974 5976
3985 1 5977 5978
3986 1 5977 5979
3987 1 5980 5981
3988 1 5980 5982
3989 1 5983 5984
3990 1 5983 5985
3991 1 5986 5987
3992 1 5986 5988
3993 1 5989 5990
3994 1 5989 5991
3995 1 5992 5993
3996 1 5992 5994
3997 1 5995 5996
3998 1 5995 5997
3999 1 5998 5999
4000 1 5998 6000
4001 1 6001 6002
4002 1 6001 6003
4003 1 6004 6005
4004 1 6004 6006
4005 1 6007 6008
4006 1 6007 6009
4007 1 6010 6011
4008 1 6010 6012
4009 1 6013 6014
4010 1 6013 6015
4011 1 6016 6017
4012 1 6016 6018
4013 1 6019 6020
4014 1 6019 6021
4015 1 6022 6023
4016 1 6022 6024
4017 1 6025 6026
4018 1 6025 6027
4019 1 6028 6029
4020 1 6028 6030
4021 1 6031 6032
4022 1 6031 6033
4023 1 6034 6035
4024 1 6034 6036
4025 1 6037 6038
4026 1 6037 6039
4027 1 6040 6041
4028 1 6040 6042
4029 1 6043 6044
4030 1 6043 6045
4031 1 6046 6047
4032 1 6046 6048
4033 1 6049 6050
4034 1 6049 6051
4035 1 6052 6053
4036 1 6052 6054
4037 1 6055 6056
4038 1 6055 6057
4039 1 6058 6059
4040 1 6058 6060
4041 1 6061 6062
4042 1 6061 6063
4043 1 6064 6065
4044 1 6064 6066
4045 1 6067 6068
4046 1 6067 6069
4047 1 6070 6071
4048 1 6070 6072
4049 1 6073 6074
4050 1 6073 6075
4051 1 6076 6077
4052 1 6076 6078
4053 1 6079 6080
4054 1 6079 6081
4055 1 6082 6083
4056 1 6082 6084
4057 1 6085 6086
4058 1 6085 6087
4059 1 6088 6089
4060 1 6088 6090
4061 1 6091 6092
4062 1 6091 6093
4063 1 6094 6095
4064 1 6094 6096
4065 1 6097 6098
4066 1 6097 6099
4067 1 6100 6101
4068 1 6100 6102
4069 1 6103 6104
4070 1 6103 6105
4071 1 6106 6107
4072 1 6106 6108
4073 1 6109 6110
4074 1 6109 6111
4075 1 6112 6113
4076 1 6112 6114
4077 1 6115 6116
4078 1 6115 6117
4079 1 6118 6119
4080 1 6118 6120
4081 1 6121 6122
4082 1 6121 6123
4083 1 6124 6125
4084 1 6124 6126
4085 1 6127 6128
4086 1 6127 6129
4087 1 6130 6131
4088 1 6130 6132
4089 1 6133 6134
4090 1 6133 6135
4091 1 6136 6137
4092 1 6136 6138
4093 1 6139 6140
4094 1 6139 6141
4095 1 6142 6143
4096 1 6142 6144
4097 1 6145 6146
4098 1 6145 6147
4099 1 6148 6149
4100 1 6148 6150
4101 1 6151 6152
4102 1 6151 6153
4103 1 6154 6155
4104 1 6154 6156
4105 1 6157 6158
4106 1 6157 6159
4107 1 6160 6161
4108 1 6160 6162
4109 1 6163 6164
4110 1 6163 6165
4111 1 6166 6167
4112 1 6166 6168
4113 1 6169 6170
4114 1 6169 6171
4115 1 6172 6173
4116 1 6172 6174
4117 1 6175 6176
4118 1 6175 6177
4119 1 6178 6179
4120 1 6178 6180
4121 1 6181 6182
4122 1 6181 6183
4123 1 6184 6185
4124 1 6184 6186
4125 1 6187 6188
4126 1 6187 6189
4127 1 6190 6191
4128 1 6190 6192
4129 1 6193 6194
4130 1 6193 6195
4131 1 6196 6197
4132 1 6196 6198
4133 1 6199 6200
4134 1 6199 6201
4135 1 6202 6203
4136 1 6202 6204
4137 1 6205 6206
4138 1 6205 6207
4139 1 6208 6209
4140 1 6208 6210
4141 1 6211 6212
4142 1 6211 6213
4143 1 6214 6215
4144 1 6214 6216
4145 1 6217 6218
4146 1 6217 6219
4147 1 6220 6221
4148 1 6220 6222
4149 1 6223 6224
4150 1 6223 6225
4151 1 6226 6227
4152 1 6226 6228
4153 1 6229 6230
4154 1 6229 6231
4155 1 6232 6233
4156 1 6232 6234
4157 1 6235 6236
4158 1 6235 6237
4159 1 6238 6239
4160 1 6238 6240
4161 1 6241 6242
4162 1 6241 6243
4163 1 6244 6245
4164 1 6244 6246
4165 1 6247 6248
4166 1 6247 6249
4167 1 6250 6251
4168 1 6250 6252
4169 1 6253 6254
4170 1 6253 6255
4171 1 6256 6257
4172 1 6256 6258
4173 1 6259 6260
4174 1 6259 6261
4175 1 6262 6263
4176 1 6262 6264
4177 1 6265 6266
4178 1 6265 6267
4179 1 6268 6269
4180 1 6268 6270
4181 1 6271 6272
4182 1 6271 6273
4183 1 6274 6275
4184 1 6274 6276
4185 1 6277 6278
4186 1 6277 6279
4187 1 6280 6281
4188 1 6280 6282
4189 1 6283 6284
4190 1 6283 6285
4191 1 6286 6287
4192 1 6286 6288
4193 1 6289 6290
4194 1 6289 6291
4195 1 6292 6293
4196 1 6292 6294
4197 1 6295 6296
4198 1 6295 6297
4199 1 6298 6299
4200 1 6298 6300
4201 1 6301 6302
4202 1 6301 6303
4203 1 6304 6305
4204 1 6304 6306
4205 1 6307 6308
4206 1 6307 6309
4207 1 6310 6311
4208 1 6310 6312
4209 1 6313 6314
4210 1 6313 6315
4211 1 6316 6317
4212 1 6316 6318
4213 1 6319 6320
4214 1 6319 6321
4215 1 6322 6323
4216 1 6322 6324
4217 1 6325 6326
4218 1 6325 6327
4219 1 6328 6329
4220 1 6328 6330
4221 1 6331 6332
4222 1 6331 6333
4223 1 6334 6335
4224 1 6334 6336
4225 1 6337 6338
4226 1 6337 6339
4227 1 6340 6341
4228 1 6340 6342
4229 1 6343 6344
4230 1 6343 6345
4231 1 6346 6347
4232 1 6346 6348
4233 1 6349 6350
4234 1 6349 6351
4235 1 6352 6353
4236 1 6352 6354
4237 1 6355 6356
4238 1 6355 6357
4239 1 6358 6359
4240 1 6358 6360
4241 1 6361 6362
4242 1 6361 6363
4243 1 6364 6365
4244 1 6364 6366
4245 1 6367 6368
4246 1 6367 6369
4247 1 6370 6371
4248 1 6370 6372
4249 1 6373 6374
4250 1 6373 6375
4251 1 6376 6377
4252 1 6376 6378
4253 1 6379 6380
4254 1 6379 6381
4255 1 6382 6383
4256 1 6382 6384
4257 1 6385 6386
4258 1 6385 6387
4259 1 6388 6389
4260 1 6388 6390
4261 1 6391 6392
4262 1 6391 6393
4263 1 6394 6395
4264 1 6394 6396
4265 1 6397 6398
4266 1 6397 6399
4267 1 6400 6401
4268 1 6400 6402
4269 1 6403 6404
4270 1 6403 6405
4271 1 6406 6407
4272 1 6406 6408
4273 1 6409 6410
4274 1 6409 6411
4275 1 6412 6413
4276 1 6412 6414
4277 1 6415 6416
4278 1 6415 6417
4279 1 6418 6419
4280 1 6418 6420
4281 1 6421 6422
4282 1 6421 6423
4283 1 6424 6425
4284 1 6424 6426
4285 1 6427 6428
4286 1 6427 6429
4287 1 6430 6431
4288 1 6430 6432
4289 1 6433 6434
4290 1 6433 6435
4291 1 6436 6437
4292 1 6436 6438
4293 1 6439 6440
4294 1 6439 6441
4295 1 6442 6443
4296 1 6442 6444
4297 1 6445 6446
4298 1 6445 6447
4299 1 6448 6449
4300 1 6448 6450
4301 1 6451 6452
4302 1 6451 6453
4303 1 6454 6455
4304 1 6454 6456
4305 1 6457 6458
4306 1 6457 6459
4307 1 6460 6461
4308 1 6460 6462
4309 1 6463 6464
4310 1 6463 6465
4311 1 6466 6467
4312 1 6466 6468
4313 1 6469 6470
4314 1 6469 6471
4315 1 6472 6473
4316 1 6472 6474
4317 1 6475 6476
4318 1 6475 6477
4319 1 6478 6479
4320 1 6478 6480
4321 1 6481 6482
4322 1 6481 6483
4323 1 6484 6485
4324 1 6484 6486
4325 1 6487 6488
4326 1 6487 6489
4327 1 6490 6491
4328 1 6490 6492
4329 1 6493 6494
4330 1 6493 6495
4331 1 6496 6497
4332 1 6496 6498
4333 1 6499 6500
4334 1 6499 6501
4335 1 6502 6503
4336 1 6502 6504
4337 1 6505 6506
4338 1 6505 6507
4339 1 6508 6509
4340 1 6508 6510
4341 1 6511 6512
4342 1 6511 6513
4343 1 6514 6515
4344 1 6514 6516
4345 1 6517 6518
4346 1 6517 6519
4347 1 6520 6521
4348 1 6520 6522
4349 1 6523 6524
4350 1 6523 6525
4351 1 6526 6527
4352 1 6526 6528
4353 1 6529 6530
4354 1 6529 6531
4355 1 6532 6533
4356 1 6532 6534
4357 1 6535 6536
4358 1 6535 6537
4359 1 6538 6539
4360 1 6538 6540
4361 1 6541 6542
4362 1 6541 6543
4363 1 6544 6545
4364 1 6544 6546
4365 1 6547 6548
4366 1 6547 6549
4367 1 6550 6551
4368 1 6550 6552
4369 1 6553 6554
4370 1 6553 6555
4371 1 6556 6557
4372 1 6556 6558
4373 1 6559 6560
4374 1 6559 6561
4375 1 6562 6563
4376 1 6562 6564
4377 1 6565 6566
4378 1 6565 6567
4379 1 6568 6569
4380 1 6568 6570
4381 1 6571 6572
4382 1 6571 6573
4383 1 6574 6575
4384 1 6574 6576
4385 1 6577 6578
4386 1 6577 6579
4387 1 6580 6581
4388 1 6580 6582
4389 1 6583 6584
4390 1 6583 6585
4391 1 6586 6587
4392 1 6586 6588
4393 1 6589 6590
4394 1 6589 6591
4395 1 6592 6593
4396 1 6592 6594
4397 1 6595 6596
4398 1 6595 6597
4399 1 6598 6599
4400 1 6598 6600
4401 1 6601 6602
4402 1 6601 6603
4403 1 6604 6605
4404 1 6604 6606
4405 1 6607 6608
4406 1 6607 6609
4407 1 6610 6611
4408 1 6610 6612
4409 1 6613 6614
4410 1 6613 6615
4411 1 6616 6617
4412 1 6616 6618
4413 1 6619 6620
4414 1 6619 6621
4415 1 6622 6623
4416 1 6622 6624
4417 1 6625 6626
4418 1 6625 6627
4419 1 6628 6629
4420 1 6628 6630
4421 1 6631 6632
4422 1 6631 6633
4423 1 6634 6635
4424 1 6634 6636
4425 1 6637 6638
4426 1 6637 6639
4427 1 6640 6641
4428 1 6640 6642
4429 1 6643 6644
4430 1 6643 6645
4431 1 6646 6647
4432 1 6646 6648
4433 1 6649 6650
4434 1 6649 6651
4435 1 6652 6653
4436 1 6652 6654
4437 1 6655 6656
4438 1 6655 6657
4439 1 6658 6659
4440 1 6658 6660
4441 1 6661 6662
4442 1 6661 6663
4443 1 6664 6665
4444 1 6664 6666
4445 1 6667 6668
4446 1 6667 6669
4447 1 6670 6671
4448 1 6670 6672
4449 1 6673 6674
4450 1 6673 6675
4451 1 6676 6677
4452 1 6676 6678
4453 1 6679 6680
4454 1 6679 6681
4455 1 6682 6683
4456 1 6682 6684
4457 1 6685 6686
4458 1 6685 6687
4459 1 6688 6689
4460 1 6688 6690
4461 1 6691 6692
4462 1 6691 6693
4463 1 6694 6695
4464 1 6694 6696
4465 1 6697 6698
4466 1 6697 6699
4467 1 6700 6701
4468 1 6700 6702
4469 1 6703 6704
4470 1 6703 6705
4471 1 6706 6707
4472 1 6706 6708
4473 1 6709 6710
4474 1 6709 6711
4475 1 6712 6713
4476 1 6712 6714
4477 1 6715 6716
4478 1 6715 6717
4479 1 6718 6719
4480 1 6718 6720
4481 1 6721 6722
4482 1 6721 6723
4483 1 6724 6725
4484 1 6724 6726
4485 1 6727 6728
4486 1 6727 6729
4487 1 6730 6731
4488 1 6730 6732
4489 1 6733 6734
4490 1 6733 6735
4491 1 6736 6737
4492 1 6736 6738
4493 1 6739 6740
4494 1 6739 6741
4495 1 6742 6743
4496 1 6742 6744
4497 1 6745 6746
4498 1 6745 6747
4499 1 6748 6749
4500 1 6748 6750
4501 1 6751 6752
4502 1 6751 6753
4503 1 6754 6755
4504 1 6754 6756
4505 1 6757 6758
4506 1 6757 6759
4507 1 6760 6761
4508 1 6760 6762
4509 1 6763 6764
4510 1 6763 6765
4511 1 6766 6767
4512 1 6766 6768
4513 1 6769 6770
4514 1 6769 6771
4515 1 6772 6773
4516 1 6772 6774
4517 1 6775 6776
4518 1 6775 6777
4519 1 6778 6779
4520 1 6778 6780
4521 1 6781 6782
4522 1 6781 6783
4523 1 6784 6785
4524 1 6784 6786
4525 1 6787 6788
4526 1 6787 6789
4527 1 6790 6791
4528 1 6790 6792
4529 1 6793 6794
4530 1 6793 6795
4531 1 6796 6797
4532 1 6796 6798
4533 1 6799 6800
4534 1 6799 6801
4535 1 6802 6803
4536 1 6802 6804
4537 1 6805 6806
4538 1 6805 6807
4539 1 6808 6809
4540 1 6808 6810
4541 1 6811 6812
4542 1 6811 6813
4543 1 6814 6815
4544 1 6814 6816
4545 1 6817 6818
4546 1 6817 6819
4547 1 6820 6821
4548 1 6820 6822
4549 1 6823 6824
4550 1 6823 6825
4551 1 6826 6827
4552 1 6826 6828
4553 1 6829 6830
4554 1 6829 6831
4555 1 6832 6833
4556 1 6832 6834
4557 1 6835 6836
4558 1 6835 6837
4559 1 6838 6839
4560 1 6838 6840
4561 1 6841 6842
4562 1 6841 6843
4563 1 6844 6845
4564 1 6844 6846
4565 1 6847 6848
4566 1 6847 6849
4567 1 6850 6851
4568 1 6850 6852
4569 1 6853 6854
4570 1 6853 6855
4571 1 6856 6857
4572 1 6856 6858
4573 1 6859 6860
4574 1 6859 6861
4575 1 6862 6863
4576 1 6862 6864
4577 1 6865 6866
4578 1 6865 6867
4579 1 6868 6869
4580 1 6868 6870
4581 1 6871 6872
4582 1 6871 6873
4583 1 6874 6875
4584 1 6874 6876
4585 1 6877 6878
4586 1 6877 6879
4587 1 6880 6881
4588 1 6880 6882
4589 1 6883 6884
4590 1 6883 6885
4591 1 6886 6887
4592 1 6886 6888
4593 1 6889 6890
4594 1 6889 6891
4595 1 6892 6893
4596 1 6892 6894
4597 1 6895 6896
4598 1 6895 6897
4599 1 6898 6899
4600 1 6898 6900
4601 1 6901 6902
4602 1 6901 6903
4603 1 6904 6905
4604 1 6904 6906
4605 1 6907 6908
4606 1 6907 6909
4607 1 6910 6911
4608 1 6910 6912
4609 1 6913 6914
4610 1 6913 6915
4611 1 6916 6917
4612 1 6916 6918
4613 1 6919 6920
4614 1 6919 6921
4615 1 6922 6923
4616 1 6922 6924
4617 1 6925 6926
4618 1 6925 6927
4619 1 6928 6929
4620 1 6928 6930
4621 1 6931 6932
4622 1 6931 6933
4623 1 6934 6935
4624 1 6934 6936
4625 1 6937 6938
4626 1 6937 6939
4627 1 6940 6941
4628 1 6940 6942
4629 1 6943 6944
4630 1 6943 6945
4631 1 6946 6947
4632 1 6946 6948
4633 1 6949 6950
4634 1 6949 6951
4635 1 6952 6953
4636 1 6952 6954
4637 1 6955 6956
4638 1 6955 6957
4639 1 6958 6959
4640 1 6958 6960
4641 1 6961 6962
4642 1 6961 6963
4643 1 6964 6965
4644 1 6964 6966
4645 1 6967 6968
4646 1 6967 6969
4647 1 6970 6971
4648 1 6970 6972
4649 1 6973 6974
4650 1 6973 6975
4651 1 6976 6977
4652 1 6976 6978
4653 1 6979 6980
4654 1 6979 6981
4655 1 6982 6983
4656 1 6982 6984
4657 1 6985 6986
4658 1 6985 6987
4659 1 6988 6989
4660 1 6988 6990
4661 1 6991 6992
4662 1 6991 6993
4663 1 6994 6995
4664 1 6994 6996
4665 1 6997 6998
4666 1 6997 6999
4667 1 7000 7001
4668 1 7000 7002
4669 1 7003 7004
4670 1 7003 7005
4671 1 7006 7007
4672 1 7006 7008
4673 1 7009 7010
4674 1 7009 7011
4675 1 7012 7013
4676 1 7012 7014
4677 1 7015 7016
4678 1 7015 7017
4679 1 7018 7019
4680 1 7018 7020
4681 1 7021 7022
4682 1 7021 7023
4683 1 7024 7025
4684 1 7024 7026
4685 1 7027 7028
4686 1 7027 7029
4687 1 7030 7031
4688 1 7030 7032
4689 1 7033 7034
4690 1 7033 7035
4691 1 7036 7037
4692 1 7036 7038
4693 1 7039 7040
4694 1 7039 7041
4695 1 7042 7043
4696 1 7042 7044
4697 1 7045 7046
4698 1 7045 7047
4699 1 7048 7049
4700 1 7048 7050
4701 1 7051 7052
4702 1 7051 7053
4703 1 7054 7055
4704 1 7054 7056
4705 1 7057 7058
4706 1 7057 7059
4707 1 7060 7061
4708 1 7060 7062
4709 1 7063 7064
4710 1 7063 7065
4711 1 7066 7067
4712 1 7066 7068
4713 1 7069 7070
4714 1 7069 7071
4715 1 7072 7073
4716 1 7072 7074
4717 1 7075 7076
4718 1 7075 7077
4719 1 7078 7079
4720 1 7078 7080
4721 1 7081 7082
4722 1 7081 7083
4723 1 7084 7085
4724 1 7084 7086
4725 1 7087 7088
4726 1 7087 7089
4727 1 7090 7091
4728 1 7090 7092
4729 1 7093 7094
4730 1 7093 7095
4731 1 7096 7097
4732 1 7096 7098
4733 1 7099 7100
4734 1 7099 7101
4735 1 7102 7103
4736 1 7102 7104
4737 1 7105 7106
4738 1 7105 7107
4739 1 7108 7109
4740 1 7108 7110
4741 1 7111 7112
4742 1 7111 7113
4743 1 7114 7115
4744 1 7114 7116
4745 1 7117 7118
4746 1 7117 7119
4747 1 7120 7121
4748 1 7120 7122
4749 1 7123 7124
4750 1 7123 7125
4751 1 7126 7127
4752 1 7126 7128
4753 1 7129 7130
4754 1 7129 7131
4755 1 7132 7133
4756 1 7132 7134
4757 1 7135 7136
4758 1 7135 7137
4759 1 7138 7139
4760 1 7138 7140
4761 1 7141 7142
4762 1 7141 7143
4763 1 7144 7145
4764 1 7144 7146
4765 1 7147 7148
4766 1 7147 7149
4767 1 7150 7151
4768 1 7150 7152
4769 1 7153 7154
4770 1 7153 7155
4771 1 7156 7157
4772 1 7156 7158
4773 1 7159 7160
4774 1 7159 7161
4775 1 7162 7163
4776 1 7162 7164
4777 1 7165 7166
4778 1 7165 7167
4779 1 7168 7169
4780 1 7168 7170
4781 1 7171 7172
4782 1 7171 7173
4783 1 7174 7175
4784 1 7174 7176
4785 1 7177 7178
4786 1 7177 7179
4787 1 7180 7181
4788 1 7180 7182
4789 1 7183 7184
4790 1 7183 7185
4791 1 7186 7187
4792 1 7186 7188
4793 1 7189 7190
4794 1 7189 7191
4795 1 7192 7193
4796 1 7192 7194
4797 1 7195 7196
4798 1 7195 7197
4799 1 7198 7199
4800 1 7198 7200
4801 1 7201 7202
4802 1 7201 7203
4803 1 7204 7205
4804 1 7204 7206
4805 1 7207 7208
4806 1 7207 7209
4807 1 7210 7211
4808 1 7210 7212
4809 1 7213 7214
4810 1 7213 7215
4811 1 7216 7217
4812 1 7216 7218
4813 1 7219 7220
4814 1 7219 7221
4815 1 7222 7223
4816 1 7222 7224
4817 1 7225 7226
4818 1 7225 7227
4819 1 7228 7229
4820 1 7228 7230
4821 1 7231 7232
4822 1 7231 7233
4823 1 7234 7235
4824 1 7234 7236
4825 1 7237 7238
4826 1 7237 7239
4827 1 7240 7241
4828 1 7240 7242
4829 1 7243 7244
4830 1 7243 7245
4831 1 7246 7247
4832 1 7246 7248
4833 1 7249 7250
4834 1 7249 7251
4835 1 7252 7253
4836 1 7252 7254
4837 1 7255 7256
4838 1 7255 7257
4839 1 7258 7259
4840 1 7258 7260
4841 1 7261 7262
4842 1 7261 7263
4843 1 7264 7265
4844 1 7264 7266
4845 1 7267 7268
4846 1 7267 7269
4847 1 7270 7271
4848 1 7270 7272
4849 1 7273 7274
4850 1 7273 7275
4851 1 7276 7277
4852 1 7276 7278
4853 1 7279 7280
4854 1 7279 7281
4855 1 7282 7283
4856 1 7282 7284
4857 1 7285 7286
4858 1 7285 7287
4859 1 7288 7289
4860 1 7288 7290
4861 1 7291 7292
4862 1 7291 7293
4863 1 7294 7295
4864 1 7294 7296
4865 1 7297 7298
4866 1 7297 7299
4867 1 7300 7301
4868 1 7300 7302
4869 1 7303 7304
4870 1 7303 7305
4871 1 7306 7307
4872 1 7306 7308
4873 1 7309 7310
4874 1 7309 7311
4875 1 7312 7313
4876 1 7312 7314
4877 1 7315 7316
4878 1 7315 7317
4879 1 7318 7319
4880 1 7318 7320
4881 1 7321 7322
4882 1 7321 7323
4883 1 7324 7325
4884 1 7324 7326
4885 1 7327 7328
4886 1 7327 7329
4887 1 7330 7331
4888 1 7330 7332
4889 1 7333 7334
4890 1 7333 7335
4891 1 7336 7337
4892 1 7336 7338
4893 1 7339 7340
4894 1 7339 7341
4895 1 7342 7343
4896 1 7342 7344
4897 1 7345 7346
4898 1 7345 7347
4899 1 7348 7349
4900 1 7348 7350
4901 1 7351 7352
4902 1 7351 7353
4903 1 7354 7355
4904 1 7354 7356
4905 1 7357 7358
4906 1 7357 7359
4907 1 7360 7361
4908 1 7360 7362
4909 1 7363 7364
4910 1 7363 7365
4911 1 7366 7367
4912 1 7366 7368
4913 1 7369 7370
4914 1 7369 7371
4915 1 7372 7373
4916 1 7372 7374
4917 1 7375 7376
4918 1 7375 7377
4919 1 7378 7379
4920 1 7378 7380
4921 1 7381 7382
4922 1 7381 7383
4923 1 7384 7385
4924 1 7384 7386
4925 1 7387 7388
4926 1 7387 7389
4927 1 7390 7391
4928 1 7390 7392
4929 1 7393 7394
4930 1 7393 7395
4931 1 7396 7397
4932 1 7396 7398
4933 1 7399 7400
4934 1 7399 7401
4935 1 7402 7403
4936 1 7402 7404
4937 1 7405 7406
4938 1 7405 7407
4939 1 7408 7409
4940 1 7408 7410
4941 1 7411 7412
4942 1 7411 7413
4943 1 7414 7415
4944 1 7414 7416
4945 1 7417 7418
4946 1 7417 7419
4947 1 7420 7421
4948 1 7420 7422
4949 1 7423 7424
4950 1 7423 7425
4951 1 7426 7427
4952 1 7426 7428
4953 1 7429 7430
4954 1 7429 7431
4955 1 7432 7433
4956 1 7432 7434
4957 1 7435 7436
4958 1 7435 7437
4959 1 7438 7439
4960 1 7438 7440
4961 1 7441 7442
4962 1 7441 7443
4963 1 7444 7445
4964 1 7444 7446
4965 1 7447 7448
4966 1 7447 7449
4967 1 7450 7451
4968 1 7450 7452
4969 1 7453 7454
4970 1 7453 7455
4971 1 7456 7457
4972 1 7456 7458
4973 1 7459 7460
4974 1 7459 7461
4975 1 7462 7463
4976 1 7462 7464
4977 1 7465 7466
4978 1 7465 7467
4979 1 7468 7469
4980 1 7468 7470
4981 1 7471 7472
4982 1 7471 7473
4983 1 7474 7475
4984 1 7474 7476
4985 1 7477 7478
4986 1 7477 7479
4987 1 7480 7481
4988 1 7480 7482
4989 1 7483 7484
4990 1 7483 7485
4991 1 7486 7487
4992 1 7486 7488
4993 1 7489 7490
4994 1 7489 7491
4995 1 7492 7493
4996 1 7492 7494
4997 1 7495 7496
4998 1 7495 7497
4999 1 7498 7499
5000 1 7498 7500
5001 1 7501 7502
5002 1 7501 7503
5003 1 7504 7505
5004 1 7504 7506
5005 1 7507 7508
5006 1 7507 7509
5007 1 7510 7511
5008 1 7510 7512
5009 1 7513 7514
5010 1 7513 7515
5011 1 7516 7517
5012 1 7516 7518
5013 1 7519 7520
5014 1 7519 7521
5015 1 7522 7523
5016 1 7522 7524
5017 1 7525 7526
5018 1 7525 7527
5019 1 7528 7529
5020 1 7528 7530
5021 1 7531 7532
5022 1 7531 7533
5023 1 7534 7535
5024 1 7534 7536
5025 1 7537 7538
5026 1 7537 7539
5027 1 7540 7541
5028 1 7540 7542
5029 1 7543 7544
5030 1 7543 7545
5031 1 7546 7547
5032 1 7546 7548
5033 1 7549 7550
5034 1 7549 7551
5035 1 7552 7553
5036 1 7552 7554
5037 1 7555 7556
5038 1 7555 7557
5039 1 7558 7559
5040 1 7558 7560
5041 1 7561 7562
5042 1 7561 7563
5043 1 7564 7565
5044 1 7564 7566
5045 1 7567 7568
5046 1 7567 7569
5047 1 7570 7571
5048 1 7570 7572
5049 1 7573 7574
5050 1 7573 7575
5051 1 7576 7577
5052 1 7576 7578
5053 1 7579 7580
5054 1 7579 7581
5055 1 7582 7583
5056 1 7582 7584
5057 1 7585 7586
5058 1 7585 7587
5059 1 7588 7589
5060 1 7588 7590
5061 1 7591 7592
5062 1 7591 7593
5063 1 7594 7595
5064 1 7594 7596
5065 1 7597 7598
5066 1 7597 7599
5067 1 7600 7601
5068 1 7600 7602
5069 1 7603 7604
5070 1 7603 7605
5071 1 7606 7607
5072 1 7606 7608
5073 1 7609 7610
5074 1 7609 7611
5075 1 7612 7613
5076 1 7612 7614
5077 1 7615 7616
5078 1 7615 7617
5079 1 7618 7619
5080 1 7618 7620
5081 1 7621 7622
5082 1 7621 7623
5083 1 7624 7625
5084 1 7624 7626
5085 1 7627 7628
5086 1 7627 7629
5087 1 7630 7631
5088 1 7630 7632
5089 1 7633 7634
5090 1 7633 7635
5091 1 7636 7637
5092 1 7636 7638
5093 1 7639 7640
5094 1 7639 7641
5095 1 7642 7643
5096 1 7642 7644
5097 1 7645 7646
5098 1 7645 7647
5099 1 7648 7649
5100 1 7648 7650
5101 1 7651 7652
5102 1 7651 7653
5103 1 7654 7655
5104 1 7654 7656
5105 1 7657 7658
5106 1 7657 7659
5107 1 7660 7661
5108 1 7660 7662
5109 1 7663 7664
5110 1 7663 7665
5111 1 7666 7667
5112 1 7666 7668
5113 1 7669 7670
5114 1 7669 7671
5115 1 7672 7673
5116 1 7672 7674
5117 1 7675 7676
5118 1 7675 7677
5119 1 7678 7679
5120 1 7678 7680
5121 1 7681 7682
5122 1 7681 7683
5123 1 7684 7685
5124 1 7684 7686
5125 1 7687 7688
5126 1 7687 7689
5127 1 7690 7691
5128 1 7690 7692
5129 1 7693 7694
5130 1 7693 7695
5131 1 7696 7697
5132 1 7696 7698
5133 1 7699 7700
5134 1 7699 7701
5135 1 7702 7703
5136 1 7702 7704
5137 1 7705 7706
5138 1 7705 7707
5139 1 7708 7709
5140 1 7708 7710
5141 1 7711 7712
5142 1 7711 7713
5143 1 7714 7715
5144 1 7714 7716
5145 1 7717 7718
5146 1 7717 7719
5147 1 7720 7721
5148 1 7720 7722
5149 1 7723 7724
5150 1 7723 7725
5151 1 7726 7727
5152 1 7726 7728
5153 1 7729 7730
5154 1 7729 7731
5155 1 7732 7733
5156 1 7732 7734
5157 1 7735 7736
5158 1 7735 7737
5159 1 7738 7739
5160 1 7738 7740
5161 1 7741 7742
5162 1 7741 7743
5163 1 7744 7745
5164 1 7744 7746
5165 1 7747 7748
5166 1 7747 7749
5167 1 7750 7751
5168 1 7750 7752
5169 1 7753 7754
5170 1 7753 7755
5171 1 7756 7757
5172 1 7756 7758
5173 1 7759 7760
5174 1 7759 7761
5175 1 7762 7763
5176 1 7762 7764
5177 1 7765 7766
5178 1 7765 7767
5179 1 7768 7769
5180 1 7768 7770
5181 1 7771 7772
5182 1 7771 7773
5183 1 7774 7775
5184 1 7774 7776
5185 1 7777 7778
5186 1 7777 7779
5187 1 7780 7781
5188 1 7780 7782
5189 1 7783 7784
5190 1 7783 7785
5191 1 7786 7787
5192 1 7786 7788
5193 1 7789 7790
5194 1 7789 7791
5195 1 7792 7793
5196 1 7792 7794
5197 1 7795 7796
5198 1 7795 7797
5199 1 7798 7799
5200 1 7798 7800
5201 1 7801 7802
5202 1 7801 7803
5203 1 7804 7805
5204 1 7804 7806
5205 1 7807 7808
5206 1 7807 7809
5207 1 7810 7811
5208 1 7810 7812
5209 1 7813 7814
5210 1 7813 7815
5211 1 7816 7817
5212 1 7816 7818
5213 1 7819 7820
5214 1 7819 7821
5215 1 7822 7823
5216 1 7822 7824
5217 1 7825 7826
5218 1 7825 7827
5219 1 7828 7829
5220 1 7828 7830
5221 1 7831 7832
5222 1 7831 7833
5223 1 7834 7835
5224 1 7834 7836
5225 1 7837 7838
5226 1 7837 7839
5227 1 7840 7841
5228 1 7840 7842
5229 1 7843 7844
5230 1 7843 7845
5231 1 7846 7847
5232 1 7846 7848
5233 1 7849 7850
5234 1 7849 7851
5235 1 7852 7853
5236 1 7852 7854
5237 1 7855 7856
5238 1 7855 7857
5239 1 7858 7859
5240 1 7858 7860
5241 1 7861 7862
5242 1 7861 7863
5243 1 7864 7865
5244 1 7864 7866
5245 1 7867 7868
5246 1 7867 7869
5247 1 7870 7871
5248 1 7870 7872
5249 1 7873 7874
5250 1 7873 7875
5251 1 7876 7877
5252 1 7876 7878
5253 1 7879 7880
5254 1 7879 7881
5255 1 7882 7883
5256 1 7882 7884
5257 1 7885 7886
5258 1 7885 7887
5259 1 7888 7889
5260 1 7888 7890
5261 1 7891 7892
5262 1 7891 7893
5263 1 7894 7895
5264 1 7894 7896
5265 1 7897 7898
5266 1 7897 7899
5267 1 7900 7901
5268 1 7900 7902
5269 1 7903 7904
5270 1 7903 7905
5271 1 7906 7907
5272 1 7906 7908
5273 1 7909 7910
5274 1 7909 7911
5275 1 7912 7913
5276 1 7912 7914
5277 1 7915 7916
5278 1 7915 7917
5279 1 7918 7919
5280 1 7918 7920
5281 1 7921 7922
5282 1 7921 7923
5283 1 7924 7925
5284 1 7924 7926
5285 1 7927 7928
5286 1 7927 7929
5287 1 7930 7931
5288 1 7930 7932
5289 1 7933 7934
5290 1 7933 7935
5291 1 7936 7937
5292 1 7936 7938
5293 1 7939 7940
5294 1 7939 7941
5295 1 7942 7943
5296 1 7942 7944
5297 1 7945 7946
5298 1 7945 7947
5299 1 7948 7949
5300 1 7948 7950
5301 1 7951 7952
5302 1 7951 7953
5303 1 7954 7955
5304 1 7954 7956
5305 1 7957 7958
5306 1 7957 7959
5307 1 7960 7961
5308 1 7960 7962
5309 1 7963 7964
5310 1 7963 7965
5311 1 7966 7967
5312 1 7966 7968
5313 1 7969 7970
5314 1 7969 7971
5315 1 7972 7973
5316 1 7972 7974
5317 1 7975 7976
5318 1 7975 7977
5319 1 7978 7979
5320 1 7978 7980
5321 1 7981 7982
5322 1 7981 7983
5323 1 7984 7985
5324 1 7984 7986
5325 1 7987 7988
5326 1 7987 7989
5327 1 7990 7991
5328 1 7990 7992
5329 1 7993 7994
5330 1 7993 7995
5331 1 7996 7997
5332 1 7996 7998
5333 1 7999 8000
5334 1 7999 8001
5335 1 8002 8003
5336 1 8002 8004
5337 1 8005 8006
5338 1 8005 8007
5339 1 8008 8009
5340 1 8008 8010
5341 1 8011 8012
5342 1 8011 8013
5343 1 8014 8015
5344 1 8014 8016
5345 1 8017 8018
5346 1 8017 8019
5347 1 8020 8021
5348 1 8020 8022
5349 1 8023 8024
5350 1 8023 8025
5351 1 8026 8027
5352 1 8026 8028
5353 1 8029 8030
5354 1 8029 8031
5355 1 8032 8033
5356 1 8032 8034
5357 1 8035 8036
5358 1 8035 8037
5359 1 8038 8039
5360 1 8038 8040
5361 1 8041 8042
5362 1 8041 8043
5363 1 8044 8045
5364 1 8044 8046
5365 1 8047 8048
5366 1 8047 8049
5367 1 8050 8051
5368 1 8050 8052
5369 1 8053 8054
5370 1 8053 8055
5371 1 8056 8057
5372 1 8056 8058
5373 1 8059 8060
5374 1 8059 8061
5375 1 8062 8063
5376 1 8062 8064
5377 1 8065 8066
5378 1 8065 8067
5379 1 8068 8069
5380 1 8068 8070
5381 1 8071 8072
5382 1 8071 8073
5383 1 8074 8075
5384 1 8074 8076
5385 1 8077 8078
5386 1 8077 8079
5387 1 8080 8081
5388 1 8080 8082
5389 1 8083 8084
5390 1 8083 8085
5391 1 8086 8087
5392 1 8086 8088
5393 1 8089 8090
5394 1 8089 8091
5395 1 8092 8093
5396 1 8092 8094
5397 1 8095 8096
5398 1 8095 8097
5399 1 8098 8099
5400 1 8098 8100
5401 1 8101 8102
5402 1 8101 8103
5403 1 8104 8105
5404 1 8104 8106
5405 1 8107 8108
5406 1 8107 8109
5407 1 8110 8111
5408 1 8110 8112
5409 1 8113 8114
5410 1 8113 8115
5411 1 8116 8117
5412 1 8116 8118
5413 1 8119 8120
5414 1 8119 8121
5415 1 8122 8123
5416 1 8122 8124
5417 1 8125 8126
5418 1 8125 8127
5419 1 8128 8129
5420 1 8128 8130
5421 1 8131 8132
5422 1 8131 8133
5423 1 8134 8135
5424 1 8134 8136
5425 1 8137 8138
5426 1 8137 8139
5427 1 8140 8141
5428 1 8140 8142
5429 1 8143 8144
5430 1 8143 8145
5431 1 8146 8147
5432 1 8146 8148
5433 1 8149 8150
5434 1 8149 8151
5435 1 8152 8153
5436 1 8152 8154
5437 1 8155 8156
5438 1 8155 8157
5439 1 8158 8159
5440 1 8158 8160
5441 1 8161 8162
5442 1 8161 8163
5443 1 8164 8165
5444 1 8164 8166
5445 1 8167 8168
5446 1 8167 8169
5447 1 8170 8171
5448 1 8170 8172
5449 1 8173 8174
5450 1 8173 8175
5451 1 8176 8177
5452 1 8176 8178
5453 1 8179 8180
5454 1 8179 8181
5455 1 8182 8183
5456 1 8182 8184
5457 1 8185 8186
5458 1 8185 8187
5459 1 8188 8189
5460 1 8188 8190
5461 1 8191 8192
5462 1 8191 8193
5463 1 8194 8195
5464 1 8194 8196
5465 1 8197 8198
5466 1 8197 8199
5467 1 8200 8201
5468 1 8200 8202
5469 1 8203 8204
5470 1 8203 8205
5471 1 8206 8207
5472 1 8206 8208
5473 1 8209 8210
5474 1 8209 8211
5475 1 8212 8213
5476 1 8212 8214
5477 1 8215 8216
5478 1 8215 8217
5479 1 8218 8219
5480 1 8218 8220
5481 1 8221 8222
5482 1 8221 8223
5483 1 8224 8225
5484 1 8224 8226
5485 1 8227 8228
5486 1 8227 8229
5487 1 8230 8231
5488 1 8230 8232
5489 1 8233 8234
5490 1 8233 8235
5491 1 8236 8237
5492 1 8236 8238
5493 1 8239 8240
5494 1 8239 8241
5495 1 8242 8243
5496 1 8242 8244
5497 1 8245 8246
5498 1 8245 8247
5499 1 8248 8249
5500 1 8248 8250
5501 1 8251 8252
5502 1 8251 8253
5503 1 8254 8255
5504 1 8254 8256
5505 1 8257 8258
5506 1 8257 8259
5507 1 8260 8261
5508 1 8260 8262
5509 1 8263 8264
5510 1 8263 8265
5511 1 8266 8267
5512 1 8266 8268
5513 1 8269 8270
5514 1 8269 8271
5515 1 8272 8273
5516 1 8272 8274
5517 1 8275 8276
5518 1 8275 8277
5519 1 8278 8279
5520 1 8278 8280
5521 1 8281 8282
5522 1 8281 8283
5523 1 8284 8285
5524 1 8284 8286
5525 1 8287 8288
5526 1 8287 8289
5527 1 8290 8291
5528 1 8290 8292
5529 1 8293 8294
5530 1 8293 8295
5531 1 8296 8297
5532 1 8296 8298
5533 1 8299 8300
5534 1 8299 8301
5535 1 8302 8303
5536 1 8302 8304
5537 1 8305 8306
5538 1 8305 8307
5539 1 8308 8309
5540 1 8308 8310
5541 1 8311 8312
5542 1 8311 8313
5543 1 8314 8315
5544 1 8314 8316
5545 1 8317 8318
5546 1 8317 8319
5547 1 8320 8321
5548 1 8320 8322
5549 1 8323 8324
5550 1 8323 8325
5551 1 8326 8327
5552 1 8326 8328
5553 1 8329 8330
5554 1 8329 8331
5555 1 8332 8333
5556 1 8332 8334
5557 1 8335 8336
5558 1 8335 8337
5559 1 8338 8339
5560 1 8338 8340
5561 1 8341 8342
5562 1 8341 8343
5563 1 8344 8345
5564 1 8344 8346
5565 1 8347 8348
5566 1 8347 8349
5567 1 8350 8351
5568 1 8350 8352
5569 1 8353 8354
5570 1 8353 8355
5571 1 8356 8357
5572 1 8356 8358
5573 1 8359 8360
5574 1 8359 8361
5575 1 8362 8363
5576 1 8362 8364
5577 1 8365 8366
5578 1 8365 8367
5579 1 8368 8369
5580 1 8368 8370
5581 1 8371 8372
5582 1 8371 8373
5583 1 8374 8375
5584 1 8374 8376
5585 1 8377 8378
5586 1 8377 8379
5587 1 8380 8381
5588 1 8380 8382
5589 1 8383 8384
5590 1 8383 8385
5591 1 8386 8387
5592 1 8386 8388
5593 1 8389 8390
5594 1 8389 8391
5595 1 8392 8393
5596 1 8392 8394
5597 1 8395 8396
5598 1 8395 8397
5599 1 8398 8399
5600 1 8398 8400
5601 1 8401 8402
5602 1 8401 8403
5603 1 8404 8405
5604 1 8404 8406
5605 1 8407 8408
5606 1 8407 8409
5607 1 8410 8411
5608 1 8410 8412
5609 1 8413 8414
5610 1 8413 8415
5611 1 8416 8417
5612 1 8416 8418
5613 1 8419 8420
5614 1 8419 8421
5615 1 8422 8423
5616 1 8422 8424
5617 1 8425 8426
5618 1 8425 8427
5619 1 8428 8429
5620 1 8428 8430
5621 1 8431 8432
5622 1 8431 8433
5623 1 8434 8435
5624 1 8434 8436
5625 1 8437 8438
5626 1 8437 8439
5627 1 8440 8441
5628 1 8440 8442
5629 1 8443 8444
5630 1 8443 8445
5631 1 8446 8447
5632 1 8446 8448
5633 1 8449 8450
5634 1 8449 8451
5635 1 8452 8453
5636 1 8452 8454
5637 1 8455 8456
5638 1 8455 8457
5639 1 8458 8459
5640 1 8458 8460
5641 1 8461 8462
5642 1 8461 8463
5643 1 8464 8465
5644 1 8464 8466
5645 1 8467 8468
5646 1 8467 8469
5647 1 8470 8471
5648 1 8470 8472
5649 1 8473 8474
5650 1 8473 8475
5651 1 8476 8477
5652 1 8476 8478
5653 1 8479 8480
5654 1 8479 8481
5655 1 8482 8483
5656 1 8482 8484
5657 1 8485 8486
5658 1 8485 8487
5659 1 8488 8489
5660 1 8488 8490
5661 1 8491 8492
5662 1 8491 8493
5663 1 8494 8495
5664 1 8494 8496
5665 1 8497 8498
5666 1 8497 8499
5667 1 8500 8501
5668 1 8500 8502
5669 1 8503 8504
5670 1 8503 8505
5671 1 8506 8507
5672 1 8506 8508
5673 1 8509 8510
5674 1 8509 8511
5675 1 8512 8513
5676 1 8512 8514
5677 1 8515 8516
5678 1 8515 8517
5679 1 8518 8519
5680 1 8518 8520
5681 1 8521 8522
5682 1 8521 8523
5683 1 8524 8525
5684 1 8524 8526
5685 1 8527 8528
5686 1 8527 8529
5687 1 8530 8531
5688 1 8530 8532
5689 1 8533 8534
5690 1 8533 8535
5691 1 8536 8537
5692 1 8536 8538
5693 1 8539 8540
5694 1 8539 8541
5695 1 8542 8543
5696 1 8542 8544
5697 1 8545 8546
5698 1 8545 8547
5699 1 8548 8549
5700 1 8548 8550
5701 1 8551 8552
5702 1 8551 8553
5703 1 8554 8555
5704 1 8554 8556
5705 1 8557 8558
5706 1 8557 8559
5707 1 8560 8561
5708 1 8560 8562
5709 1 8563 8564
5710 1 8563 8565
5711 1 8566 8567
5712 1 8566 8568
5713 1 8569 8570
5714 1 8569 8571
5715 1 8572 8573
5716 1 8572 8574
5717 1 8575 8576
5718 1 8575 8577
5719 1 8578 8579
5720 1 8578 8580
5721 1 8581 8582
5722 1 8581 8583
5723 1 8584 8585
5724 1 8584 8586
5725 1 8587 8588
5726 1 8587 8589
5727 1 8590 8591
5728 1 8590 8592
5729 1 8593 8594
5730 1 8593 8595
5731 1 8596 8597
5732 1 8596 8598
5733 1 8599 8600
5734 1 8599 8601
5735 1 8602 8603
5736 1 8602 8604
5737 1 8605 8606
5738 1 8605 8607
5739 1 8608 8609
5740 1 8608 8610
5741 1 8611 8612
5742 1 8611 8613
5743 1 8614 8615
5744 1 8614 8616
5745 1 8617 8618
5746 1 8617 8619
5747 1 8620 8621
5748 1 8620 8622
5749 1 8623 8624
5750 1 8623 8625
5751 1 8626 8627
5752 1 8626 8628
5753 1 8629 8630
5754 1 8629 8631
5755 1 8632 8633
5756 1 8632 8634
5757 1 8635 8636
5758 1 8635 8637
5759 1 8638 8639
5760 1 8638 8640
5761 1 8641 8642
5762 1 8641 8643
5763 1 8644 8645
5764 1 8644 8646
5765 1 8647 8648
5766 1 8647 8649
5767 1 8650 8651
5768 1 8650 8652
5769 1 8653 8654
5770 1 8653 8655
5771 1 8656 8657
5772 1 8656 8658
5773 1 8659 8660
5774 1 8659 8661
5775 1 8662 8663
5776 1 8662 8664
5777 1 8665 8666
5778 1 8665 8667
5779 1 8668 8669
5780 1 8668 8670
5781 1 8671 8672
5782 1 8671 8673
5783 1 8674 8675
5784 1 8674 8676
5785 1 8677 8678
5786 1 8677 8679
5787 1 8680 8681
5788 1 8680 8682
5789 1 8683 8684
5790 1 8683 8685
5791 1 8686 8687
5792 1 8686 8688
5793 1 8689 8690
5794 1 8689 8691
5795 1 8692 8693
5796 1 8692 8694
5797 1 8695 8696
5798 1 8695 8697
5799 1 8698 8699
5800 1 8698 8700
5801 1 8701 8702
5802 1 8701 8703
5803 1 8704 8705
5804 1 8704 8706
5805 1 8707 8708
5806 1 8707 8709
5807 1 8710 8711
5808 1 8710 8712
5809 1 8713 8714
5810 1 8713 8715
5811 1 8716 8717
5812 1 8716 8718
5813 1 8719 8720
5814 1 8719 8721
5815 1 8722 8723
5816 1 8722 8724
5817 1 8725 8726
5818 1 8725 8727
5819 1 8728 8729
5820 1 8728 8730
5821 1 8731 8732
5822 1 8731 8733
5823 1 8734 8735
5824 1 8734 8736
5825 1 8737 8738
5826 1 8737 8739
5827 1 8740 8741
5828 1 8740 8742
5829 1 8743 8744
5830 1 8743 8745
5831 1 8746 8747
5832 1 8746 8748
5833 1 8749 8750
5834 1 8749 8751
5835 1 8752 8753
5836 1 8752 8754
5837 1 8755 8756
5838 1 8755 8757
5839 1 8758 8759
5840 1 8758 8760
5841 1 8761 8762
5842 1 8761 8763
5843 1 8764 8765
5844 1 8764 8766
5845 1 8767 8768
5846 1 8767 8769
5847 1 8770 8771
5848 1 8770 8772
5849 1 8773 8774
5850 1 8773 8775
5851 1 8776 8777
5852 1 8776 8778
5853 1 8779 8780
5854 1 8779 8781
5855 1 8782 8783
5856 1 8782 8784
5857 1 8785 8786
5858 1 8785 8787
5859 1 8788 8789
5860 1 8788 8790
5861 1 8791 8792
5862 1 8791 8793
5863 1 8794 8795
5864 1 8794 8796
5865 1 8797 8798
5866 1 8797 8799
5867 1 8800 8801
5868 1 8800 8802
5869 1 8803 8804
5870 1 8803 8805
5871 1 8806 8807
5872 1 8806 8808
5873 1 8809 8810
5874 1 8809 8811
5875 1 8812 8813
5876 1 8812 8814
5877 1 8815 8816
5878 1 8815 8817
5879 1 8818 8819
5880 1 8818 8820
5881 1 8821 8822
5882 1 8821 8823
5883 1 8824 8825
5884 1 8824 8826
5885 1 8827 8828
5886 1 8827 8829
5887 1 8830 8831
5888 1 8830 8832
5889 2 8833 8834
5890 2 8833 8835
5891 2 8836 8837
5892 2 8836 8838
5893 2 8839 8840
5894 2 8839 8841
5895 2 8842 8843
5896 2 8842 8844
5897 2 8845 8846
5898 2 8845 8847
5899 2 8848 8849
5900 2 8848 8850
5901 2 8851 8852
5902 2 8851 8853
5903 2 8854 8855
5904 2 8854 8856
5905 2 8857 8858
5906 2 8857 8859
5907 2 8860 8861
5908 2 8860 8862
5909 2 8863 8864
5910 2 8863 8865
5911 2 8866 8867
5912 2 8866 8868
5913 2 8869 8870
5914 2 8869 8871
5915 2 8872 8873
5916 2 8872 8874
5917 2 8875 8876
5918 2 8875 8877
5919 2 8878 8879
5920 2 8878 8880
5921 2 8881 8882
5922 2 8881 8883
5923 2 8884 8885
5924 2 8884 8886
5925 2 8887 8888
5926 2 8887 8889
5927 2 8890 8891
5928 2 8890 8892
5929 2 8893 8894
5930 2 8893 8895
5931 2 8896 8897
5932 2 8896 8898
5933 2 8899 8900
5934 2 8899 8901
5935 2 8902 8903
5936 2 8902 8904
5937 2 8905 8906
5938 2 8905 8907
5939 2 8908 8909
5940 2 8908 8910
5941 2 8911 8912
5942 2 8911 8913
5943 2 8914 8915
5944 2 8914 8916
5945 2 8917 8918
5946 2 8917 8919
5947 2 8920 8921
5948 2 8920 8922
5949 2 8923 8924
5950 2 8923 8925
5951 2 8926 8927
5952 2 8926 8928
5953 2 8929 8930
5954 2 8929 8931
5955 2 8932 8933
5956 2 8932 8934
5957 2 8935 8936
5958 2 8935 8937
5959 2 8938 8939
5960 2 8938 8940
5961 2 8941 8942
5962 2 8941 8943
5963 2 8944 8945
5964 2 8944 8946
5965 2 8947 8948
5966 2 8947 8949
5967 2 8950 8951
5968 2 8950 8952
5969 2 8953 8954
5970 2 8953 8955
5971 2 8956 8957
5972 2 8956 8958
5973 2 8959 8960
5974 2 8959 8961
5975 2 8962 8963
5976 2 8962 8964
5977 2 8965 8966
5978 2 8965 8967
5979 2 8968 8969
5980 2 8968 8970
5981 2 8971 8972
5982 2 8971 8973
5983 2 8974 8975
5984 2 8974 8976
5985 2 8977 8978
5986 2 8977 8979
5987 2 8980 8981
5988 2 8980 8982
5989 2 8983 8984
5990 2 8983 8985
5991 2 8986 8987
5992 2 8986 8988
5993 2 8989 8990
5994 2 8989 8991
5995 2 8992 8993
5996 2 8992 8994
5997 2 8995 8996
5998 2 8995 8997
5999 2 8998 8999
6000 2 8998 9000
6001 2 9001 9002
6002 2 9001 9003
6003 2 9004 9005
6004 2 9004 9006
6005 2 9007 9008
6006 2 9007 9009
6007 2 9010 9011
6008 2 9010 9012
6009 2 9013 9014
6010 2 9013 9015
6011 2 9016 9017
6012 2 9016 9018
6013 2 9019 9020
6014 2 9019 9021
6015 2 9022 9023
6016 2 9022 9024
6017 2 9025 9026
6018 2 9025 9027
6019 2 9028 9029
6020 2 9028 9030
6021 2 9031 9032
6022 2 9031 9033
6023 2 9034 9035
6024 2 9034 9036
6025 2 9037 9038
6026 2 9037 9039
6027 2 9040 9041
6028 2 9040 9042
6029 2 9043 9044
6030 2 9043 9045
6031 2 9046 9047
6032 2 9046 9048
6033 2 9049 9050
6034 2 9049 9051
6035 2 9052 9053
6036 2 9052 9054
6037 2 9055 9056
6038 2 9055 9057
6039 2 9058 9059
6040 2 9058 9060
6041 2 9061 9062
6042 2 9061 9063
6043 2 9064 9065
6044 2 9064 9066
6045 2 9067 9068
6046 2 9067 9069
6047 2 9070 9071
6048 2 9070 9072
6049 2 9073 9074
6050 2 9073 9075
6051 2 9076 9077
6052 2 9076 9078
6053 2 9079 9080
6054 2 9079 9081
6055 2 9082 9083
6056 2 9082 9084
6057 2 9085 9086
6058 2 9085 9087
6059 2 9088 9089
6060 2 9088 9090
6061 2 9091 9092
6062 2 9091 9093
6063 2 9094 9095
6064 2 9094 9096
6065 2 9097 9098
6066 2 9097 9099
6067 2 9100 9101
6068 2 9100 9102
6069 2 9103 9104
6070 2 9103 9105
6071 2 9106 9107
6072 2 9106 9108
6073 2 9109 9110
6074 2 9109 9111
6075 2 9112 9113
6076 2 9112 9114
6077 2 9115 9116
6078 2 9115 9117
6079 2 9118 9119
6080 2 9118 9120
6081 2 9121 9122
6082 2 9121 9123
6083 2 9124 9125
6084 2 9124 9126
6085 2 9127 9128
6086 2 9127 9129
6087 2 9130 9131
6088 2 9130 9132
6089 2 9133 9134
6090 2 9133 9135
6091 2 9136 9137
6092 2 9136 9138
6093 2 9139 9140
6094 2 9139 9141
6095 2 9142 9143
6096 2 9142 9144
6097 2 9145 9146
6098 2 9145 9147
6099 2 9148 9149
6100 2 9148 9150
6101 2 9151 9152
6102 2 9151 9153
6103 2 9154 9155
6104 2 9154 9156
6105 2 9157 9158
6106 2 9157 9159
6107 2 9160 9161
6108 2 9160 9162
6109 2 9163 9164
6110 2 9163 9165
6111 2 9166 9167
6112 2 9166 9168
6113 2 9169 9170
6114 2 9169 9171
6115 2 9172 9173
6116 2 9172 9174
6117 2 9175 9176
6118 2 9175 9177
6119 2 9178 9179
6120 2 9178 9180
6121 2 9181 9182
6122 2 9181 9183
6123 2 9184 9185
6124 2 9184 9186
6125 2 9187 9188
6126 2 9187 9189
6127 2 9190 9191
6128 2 9190 9192
6129 2 9193 9194
6130 2 9193 9195
6131 2 9196 9197
6132 2 9196 9198
6133 2 9199 9200
6134 2 9199 9201
6135 2 9202 9203
6136 2 9202 9204
6137 2 9205 9206
6138 2 9205 9207
6139 2 9208 9209
6140 2 9208 9210
6141 2 9211 9212
6142 2 9211 9213
6143 2 9214 9215
6144 2 9214 9216
6145 2 9217 9218
6146 2 9217 9219
6147 2 9220 9221
6148 2 9220 9222
6149 2 9223 9224
6150 2 9223 9225
6151 2 9226 9227
6152 2 9226 9228
6153 2 9229 9230
6154 2 9229 9231
6155 2 9232 9233
6156 2 9232 9234
6157 2 9235 9236
6158 2 9235 9237
6159 2 9238 9239
6160 2 9238 9240
6161 2 9241 9242
6162 2 9241 9243
6163 2 9244 9245
6164 2 9244 9246
6165 2 9247 9248
6166 2 9247 9249
6167 2 9250 9251
6168 2 9250 9252
6169 2 9253 9254
6170 2 9253 9255
6171 2 9256 9257
6172 2 9256 9258
6173 2 9259 9260
6174 2 9259 9261
6175 2 9262 9263
6176 2 9262 9264
6177 2 9265 9266
6178 2 9265 9267
6179 2 9268 9269
6180 2 9268 9270
6181 2 9271 9272
6182 2 9271 9273
6183 2 9274 9275
6184 2 9274 9276
6185 2 9277 9278
6186 2 9277 9279
6187 2 9280 9281
6188 2 9280 9282
6189 2 9283 9284
6190 2 9283 9285
6191 2 9286 9287
6192 2 9286 9288
6193 2 9289 9290
6194 2 9289 9291
6195 2 9292 9293
6196 2 9292 9294
6197 2 9295 9296
6198 2 9295 9297
6199 2 9298 9299
6200 2 9298 9300
6201 2 9301 9302
6202 2 9301 9303
6203 2 9304 9305
6204 2 9304 9306
6205 2 9307 9308
6206 2 9307 9309
6207 2 9310 9311
6208 2 9310 9312
6209 2 9313 9314
6210 2 9313 9315
6211 2 9316 9317
6212 2 9316 9318
6213 2 9319 9320
6214 2 9319 9321
6215 2 9322 9323
6216 2 9322 9324
6217 2 9325 9326
6218 2 9325 9327
6219 2 9328 9329
6220 2 9328 9330
6221 2 9331 9332
6222 2 9331 9333
6223 2 9334 9335
6224 2 9334 9336
6225 2 9337 9338
6226 2 9337 9339
6227 2 9340 9341
6228 2 9340 9342
6229 2 9343 9344
6230 2 9343 9345
6231 2 9346 9347
6232 2 9346 9348
6233 2 9349 9350
6234 2 9349 9351
6235 2 9352 9353
6236 2 9352 9354
6237 2 9355 9356
6238 2 9355 9357
6239 2 9358 9359
6240 2 9358 9360
6241 2 9361 9362
6242 2 9361 9363
6243 2 9364 9365
6244 2 9364 9366
6245 2 9367 9368
6246 2 9367 9369
6247 2 9370 9371
6248 2 9370 9372
6249 2 9373 9374
6250 2 9373 9375
6251 2 9376 9377
6252 2 9376 9378
6253 2 9379 9380
6254 2 9379 9381
6255 2 9382 9383
6256 2 9382 9384
6257 2 9385 9386
6258 2 9385 9387
6259 2 9388 9389
6260 2 9388 9390
6261 2 9391 9392
6262 2 9391 9393
6263 2 9394 9395
6264 2 9394 9396
6265 2 9397 9398
6266 2 9397 9399
6267 2 9400 9401
6268 2 9400 9402
6269 2 9403 9404
6270 2 9403 9405
6271 2 9406 9407
6272 2 9406 9408
6273 2 9409 9410
6274 2 9409 9411
6275 2 9412 9413
6276 2 9412 9414
6277 2 9415 9416
6278 2 9415 9417
6279 2 9418 9419
6280 2 9418 9420
6281 2 9421 9422
6282 2 9421 9423
6283 2 9424 9425
6284 2 9424 9426
6285 2 9427 9428
6286 2 9427 9429
6287 2 9430 9431
6288 2 9430 9432
6289 2 9433 9434
6290 2 9433 9435
6291 2 9436 9437
6292 2 9436 9438
6293 2 9439 9440
6294 2 9439 9441
6295 2 9442 9443
6296 2 9442 9444
6297 2 9445 9446
6298 2 9445 9447
6299 2 9448 9449
6300 2 9448 9450
6301 2 9451 9452
6302 2 9451 9453
6303 2 9454 9455
6304 2 9454 9456
6305 2 9457 9458
6306 2 9457 9459
6307 2 9460 9461
6308 2 9460 9462
6309 2 9463 9464
6310 2 9463 9465
6311 2 9466 9467
6312 2 9466 9468
6313 2 9469 9470
6314 2 9469 9471
6315 2 9472 9473
6316 2 9472 9474
6317 2 9475 9476
6318 2 9475 9477
6319 2 9478 9479
6320 2 9478 9480
6321 2 9481 9482
6322 2 9481 9483
6323 2 9484 9485
6324 2 9484 9486
6325 2 9487 9488
6326 2 9487 9489
6327 2 9490 9491
6328 2 9490 9492
6329 2 9493 9494
6330 2 9493 9495
6331 2 9496 9497
6332 2 9496 9498
6333 2 9499 9500
6334 2 9499 9501
6335 2 9502 9503
6336 2 9502 9504
6337 2 9505 9506
6338 2 9505 9507
6339 2 9508 9509
6340 2 9508 9510
6341 2 9511 9512
6342 2 9511 9513
6343 2 9514 9515
6344 2 9514 9516
6345 2 9517 9518
6346 2 9517 9519
6347 2 9520 9521
6348 2 9520 9522
6349 2 9523 9524
6350 2 9523 9525
6351 2 9526 9527
6352 2 9526 9528
6353 2 9529 9530
6354 2 9529 9531
6355 2 9532 9533
6356 2 9532 9534
6357 2 9535 9536
6358 2 9535 9537
6359 2 9538 9539
6360 2 9538 9540
6361 2 9541 9542
6362 2 9541 9543
6363 2 9544 9545
6364 2 9544 9546
6365 2 9547 9548
6366 2 9547 9549
6367 2 9550 9551
6368 2 9550 9552
6369 2 9553 9554
6370 2 9553 9555
6371 2 9556 9557
6372 2 9556 9558
6373 2 9559 9560
6374 2 9559 9561
6375 2 9562 9563
6376 2 9562 9564
6377 2 9565 9566
6378 2 9565 9567
6379 2 9568 9569
6380 2 9568 9570
6381 2 9571 9572
6382 2 9571 9573
6383 2 9574 9575
6384 2 9574 9576
6385 2 9577 9578
6386 2 9577 9579
6387 2 9580 9581
6388 2 9580 9582
6389 2 9583 9584
6390 2 9583 9585
6391 2 9586 9587
6392 2 9586 9588
6393 2 9589 9590
6394 2 9589 9591
6395 2 9592 9593
6396 2 9592 9594
6397 2 9595 9596
6398 2 9595 9597
6399 2 9598 9599
6400 2 9598 9600
6401 2 9601 9602
6402 2 9601 9603
6403 2 9604 9605
6404 2 9604 9606
6405 2 9607 9608
6406 2 9607 9609
6407 2 9610 9611
6408 2 9610 9612
6409 2 9613 9614
6410 2 9613 9615
6411 2 9616 9617
6412 2 9616 9618
6413 2 9619 9620
6414 2 9619 9621
6415 2 9622 9623
6416 2 9622 9624
6417 2 9625 9626
6418 2 9625 9627
6419 2 9628 9629
6420 2 9628 9630
6421 2 9631 9632
6422 2 9631 9633
6423 2 9634 9635
6424 2 9634 9636
6425 2 9637 9638
6426 2 9637 9639
6427 2 9640 9641
6428 2 9640 9642
6429 2 9643 9644
6430 2 9643 9645
6431 2 9646 9647
6432 2 9646 9648
6433 2 9649 9650
6434 2 9649 9651
6435 2 9652 9653
6436 2 9652 9654
6437 2 9655 9656
6438 2 9655 9657
6439 2 9658 9659
6440 2 9658 9660
6441 2 9661 9662
6442 2 9661 9663
6443 2 9664 9665
6444 2 9664 9666
6445 2 9667 9668
6446 2 9667 9669
6447 2 9670 9671
6448 2 9670 9672
6449 2 9673 9674
6450 2 9673 9675
6451 2 9676 9677
6452 2 9676 9678
6453 2 9679 9680
6454 2 9679 9681
6455 2 9682 9683
6456 2 9682 9684
6457 2 9685 9686
6458 2 9685 9687
6459 2 9688 9689
6460 2 9688 9690
6461 2 9691 9692
6462 2 9691 9693
6463 2 9694 9695
6464 2 9694 9696
6465 2 9697 9698
6466 2 9697 9699
6467 2 9700 9701
6468 2 9700 9702
6469 2 9703 9704
6470 2 9703 9705
6471 2 9706 9707
6472 2 9706 9708
6473 2 9709 9710
6474 2 9709 9711
6475 2 9712 9713
6476 2 9712 9714
6477 2 9715 9716
6478 2 9715 9717
6479 2 9718 9719
6480 2 9718 9720
6481 2 9721 9722
6482 2 9721 9723
6483 2 9724 9725
6484 2 9724 9726
6485 2 9727 9728
6486 2 9727 9729
6487 2 9730 9731
6488 2 9730 9732
6489 2 9733 9734
6490 2 9733 9735
6491 2 9736 9737
6492 2 9736 9738
6493 2 9739 9740
6494 2 9739 9741
6495 2 9742 9743
6496 2 9742 9744
6497 2 9745 9746
6498 2 9745 9747
6499 2 9748 9749
6500 2 9748 9750
6501 2 9751 9752
6502 2 9751 9753
6503 2 9754 9755
6504 2 9754 9756
6505 2 9757 9758
6506 2 9757 9759
6507 2 9760 9761
6508 2 9760 9762
6509 2 9763 9764
6510 2 9763 9765
6511 2 9766 9767
6512 2 9766 9768
6513 2 9769 9770
6514 2 9769 9771
6515 2 9772 9773
6516 2 9772 9774
6517 2 9775 9776
6518 2 9775 9777
6519 2 9778 9779
6520 2 9778 9780
6521 2 9781 9782
6522 2 9781 9783
6523 2 9784 9785
6524 2 9784 9786
6525 2 9787 9788
6526 2 9787 9789
6527 2 9790 9791
6528 2 9790 9792
6529 2 9793 9794
6530 2 9793 9795
6531 2 9796 9797
6532 2 9796 9798
6533 2 9799 9800
6534 2 9799 9801
6535 2 9802 9803
6536 2 9802 9804
6537 2 9805 9806
6538 2 9805 9807
6539 2 9808 9809
6540 2 9808 9810
6541 2 9811 9812
6542 2 9811 9813
6543 2 9814 9815
6544 2 9814 9816
6545 2 9817 9818
6546 2 9817 9819
6547 2 9820 9821
6548 2 9820 9822
6549 2 9823 9824
6550 2 9823 9825
6551 2 9826 9827
6552 2 9826 9828
6553 2 9829 9830
6554 2 9829 9831
6555 2 9832 9833
6556 2 9832 9834
6557 2 9835 9836
6558 2 9835 9837
6559 2 9838 9839
6560 2 9838 9840
6561 2 9841 9842
6562 2 9841 9843
6563 2 9844 9845
6564 2 9844 9846
6565 2 9847 9848
6566 2 9847 9849
6567 2 9850 9851
6568 2 9850 9852
6569 2 9853 9854
6570 2 9853 9855
6571 2 9856 9857
6572 2 9856 9858
6573 2 9859 9860
6574 2 9859 9861
6575 2 9862 9863
6576 2 9862 9864
6577 2 9865 9866
6578 2 9865 9867
6579 2 9868 9869
6580 2 9868 9870
6581 2 9871 9872
6582 2 9871 9873
6583 2 9874 9875
6584 2 9874 9876
6585 2 9877 9878
6586 2 9877 9879
6587 2 9880 9881
6588 2 9880 9882
6589 2 9883 9884
6590 2 9883 9885
6591 2 9886 9887
6592 2 9886 9888
6593 2 9889 9890
6594 2 9889 9891
6595 2 9892 9893
6596 2 9892 9894
6597 2 9895 9896
6598 2 9895 9897
6599 2 9898 9899
6600 2 9898 9900
6601 2 9901 9902
6602 2 9901 9903
6603 2 9904 9905
6604 2 9904 9906
6605 2 9907 9908
6606 2 9907 9909
6607 2 9910 9911
6608 2 9910 9912
6609 2 9913 9914
6610 2 9913 9915
6611 2 9916 9917
6612 2 9916 9918
6613 2 9919 9920
6614 2 9919 9921
6615 2 9922 9923
6616 2 9922 9924
6617 2 9925 9926
6618 2 9925 9927
6619 2 9928 9929
6620 2 9928 9930
6621 2 9931 9932
6622 2 9931 9933
6623 2 9934 9935
6624 2 9934 9936
6625 2 9937 9938
6626 2 9937 9939
6627 2 9940 9941
6628 2 9940 9942
6629 2 9943 9944
6630 2 9943 9945
6631 2 9946 9947
6632 2 9946 9948
6633 2 9949 9950
6634 2 9949 9951
6635 2 9952 9953
6636 2 9952 9954
6637 2 9955 9956
6638 2 9955 9957
6639 2 9958 9959
6640 2 9958 9960
6641 2 9961 9962
6642 2 9961 9963
6643 2 9964 9965
6644 2 9964 9966
6645 2 9967 9968
6646 2 9967 9969
6647 2 9970 9971
6648 2 9970 9972
6649 2 9973 9974
6650 2 9973 9975
6651 2 9976 9977
6652 2 9976 9978
6653 2 9979 9980
6654 2 9979 9981
6655 2 9982 9983
6656 2 9982 9984
6657 2 9985 9986
6658 2 9985 9987
6659 2 9988 9989
6660 2 9988 9990
6661 2 9991 9992
6662 2 9991 9993
6663 2 9994 9995
6664 2 9994 9996
6665 2 9997 9998
6666 2 9997 9999
6667 2 10000 10001
6668 2 10000 10002
6669 2 10003 10004
6670 2 10003 10005
6671 2 10006 10007
6672 2 10006 10008
6673 2 10009 10010
6674 2 10009 10011
6675 2 10012 10013
6676 2 10012 10014
6677 2 10015 10016
6678 2 10015 10017
6679 2 10018 10019
6680 2 10018 10020
6681 2 10021 10022
6682 2 10021 10023
6683 2 10024 10025
6684 2 10024 10026
6685 2 10027 10028
6686 2 10027 10029
6687 2 10030 10031
6688 2 10030 10032
6689 2 10033 10034
6690 2 10033 10035
6691 2 10036 10037
6692 2 10036 10038
6693 2 10039 10040
6694 2 10039 10041
6695 2 10042 10043
6696 2 10042 10044
6697 2 10045 10046
6698 2 10045 10047
6699 2 10048 10049
6700 2 10048 10050
6701 2 10051 10052
6702 2 10051 10053
6703 2 10054 10055
6704 2 10054 10056
6705 2 10057 10058
6706 2 10057 10059
6707 2 10060 10061
6708 2 10060 10062
6709 2 10063 10064
6710 2 10063 10065
6711 2 10066 10067
6712 2 10066 10068
6713 2 10069 10070
6714 2 10069 10071
6715 2 10072 10073
6716 2 10072 10074
6717 2 10075 10076
6718 2 10075 10077
6719 2 10078 10079
6720 2 10078 10080
6721 2 10081 10082
6722 2 10081 10083
6723 2 10084 10085
6724 2 10084 10086
6725 2 10087 10088
6726 2 10087 10089
6727 2 10090 10091
6728 2 10090 10092
6729 2 10093 10094
6730 2 10093 10095
6731 2 10096 10097
6732 2 10096 10098
6733 2 10099 10100
6734 2 10099 10101
6735 2 10102 10103
6736 2 10102 10104
6737 2 10105 10106
6738 2 10105 10107
6739 2 10108 10109
6740 2 10108 10110
6741 2 10111 10112
6742 2 10111 10113
6743 2 10114 10115
6744 2 10114 10116
6745 2 10117 10118
6746 2 10117 10119
6747 2 10120 10121
6748 2 10120 10122
6749 2 10123 10124
6750 2 10123 10125
6751 2 10126 10127
6752 2 10126 10128
6753 2 10129 10130
6754 2 10129 10131
6755 2 10132 10133
6756 2 10132 10134
6757 2 10135 10136
6758 2 10135 10137
6759 2 10138 10139
6760 2 10138 10140
6761 2 10141 10142
6762 2 10141 10143
6763 2 10144 10145
6764 2 10144 10146
6765 2 10147 10148
6766 2 10147 10149
6767 2 10150 10151
6768 2 10150 10152
6769 2 10153 10154
6770 2 10153 10155
6771 2 10156 10157
6772 2 10156 10158
6773 2 10159 10160
6774 2 10159 10161
6775 2 10162 10163
6776 2 10162 10164
6777 2 10165 10166
6778 2 10165 10167
6779 2 10168 10169
6780 2 10168 10170
6781 2 10171 10172
6782 2 10171 10173
6783 2 10174 10175
6784 2 10174 10176
6785 2 10177 10178
6786 2 10177 10179
6787 2 10180 10181
6788 2 10180 10182
6789 2 10183 10184
6790 2 10183 10185
6791 2 10186 10187
6792 2 10186 10188
6793 2 10189 10190
6794 2 10189 10191
6795 2 10192 10193
6796 2 10192 10194
6797 2 10195 10196
6798 2 10195 10197
6799 2 10198 10199
6800 2 10198 10200
6801 2 10201 10202
6802 2 10201 10203
6803 2 10204 10205
6804 2 10204 10206
6805 2 10207 10208
6806 2 10207 10209
6807 2 10210 10211
6808 2 10210 10212
6809 2 10213 10214
6810 2 10213 10215
6811 2 10216 10217
6812 2 10216 10218
6813 2 10219 10220
6814 2 10219 10221
6815 2 10222 10223
6816 2 10222 10224
6817 2 10225 10226
6818 2 10225 10227
6819 2 10228 10229
6820 2 10228 10230
6821 2 10231 10232
6822 2 10231 10233
6823 2 10234 10235
6824 2 10234 10236
6825 2 10237 10238
6826 2 10237 10239
6827 2 10240 10241
6828 2 10240 10242
6829 2 10243 10244
6830 2 10243 10245
6831 2 10246 10247
6832 2 10246 10248
6833 2 10249 10250
6834 2 10249 10251
6835 2 10252 10253
6836 2 10252 10254
6837 2 10255 10256
6838 2 10255 10257
6839 2 10258 10259
6840 2 10258 10260
6841 2 10261 10262
6842 2 10261 10263
6843 2 10264 10265
6844 2 10264 10266
6845 2 10267 10268
6846 2 10267 10269
6847 2 10270 10271
6848 2 10270 10272
6849 2 10273 10274
6850 2 10273 10275
6851 2 10276 10277
6852 2 10276 10278
6853 2 10279 10280
6854 2 10279 10281
6855 2 10282 10283
6856 2 10282 10284
6857 2 10285 10286
6858 2 10285 10287
6859 2 10288 10289
6860 2 10288 10290
6861 2 10291 10292
6862 2 10291 10293
6863 2 10294 10295
6864 2 10294 10296
6865 2 10297 10298
6866 2 10297 10299
6867 2 10300 10301
6868 2 10300 10302
6869 2 10303 10304
6870 2 10303 10305
6871 2 10306 10307
6872 2 10306 10308
6873 2 10309 10310
6874 2 10309 10311
6875 2 10312 10313
6876 2 10312 10314
6877 2 10315 10316
6878 2 10315 10317
6879 2 10318 10319
6880 2 10318 10320
6881 2 10321 10322
6882 2 10321 10323
6883 2 10324 10325
6884 2 10324 10326
6885 2 10327 10328
6886 2 10327 10329
6887 2 10330 10331
6888 2 10330 10332
6889 2 10333 10334
6890 2 10333 10335
6891 2 10336 10337
6892 2 10336 10338
6893 2 10339 10340
6894 2 10339 10341
6895 2 10342 10343
6896 2 10342 10344
6897 2 10345 10346
6898 2 10345 10347
6899 2 10348 10349
6900 2 10348 10350
6901 2 10351 10352
6902 2 10351 10353
6903 2 10354 10355
6904 2 10354 10356
6905 2 10357 10358
6906 2 10357 10359
6907 2 10360 10361
6908 2 10360 10362
6909 2 10363 10364
6910 2 10363 10365
6911 2 10366 10367
6912 2 10366 10368

 Angles

1 1 2 1 3
2 1 5 4 6
3 1 8 7 9
4 1 11 10 12
5 1 14 13 15
6 1 17 16 18
7 1 20 19 21
8 1 23 22 24
9 1 26 25 27
10 1 29 28 30
11 1 32 31 33
12 1 35 34 36
13 1 38 37 39
14 1 41 40 42
15 1 44 43 45
16 1 47 46 48
17 1 50 49 51
18 1 53 52 54
19 1 56 55 57
20 1 59 58 60
21 1 62 61 63
22 1 65 64 66
23 1 68 67 69
24 1 71 70 72
25 1 74 73 75
26 1 77 76 78
27 1 80 79 81
28 1 83 82 84
29 1 86 85 87
30 1 89 88 90
31 1 92 91 93
32 1 95 94 96
33 1 98 97 99
34 1 101 100 102
35 1 104 103 105
36 1 107 106 108
37 1 110 109 111
38 1 113 112 114
39 1 116 115 117
40 1 119 118 120
41 1 122 121 123
42 1 125 124 126
43 1 128 127 129
44 1 131 130 132
45 1 134 133 135
46 1 137 136 138
47 1 140 139 141
48 1 143 142 144
49 1 146 145 147
50 1 149 148 150
51 1 152 151 153
52 1 155 154 156
53 1 158 157 159
54 1 161 160 162
55 1 164 163 165
56 1 167 166 168
57 1 170 169 171
58 1 173 172 174
59 1 176 175 177
60 1 179 178 180
61 1 182 181 183
62 1 185 184 186
63 1 188 187 189
64 1 191 190 192
65 1 194 193 195
66 1 197 196 198
67 1 200 199 201
68 1 203 202 204
69 1 206 205 207
70 1 209 208 210
71 1 212 211 213
72 1 215 214 216
73 1 218 217 219
74 1 221 220 222
75 1 224 223 225
76 1 227 226 228
77 1 230 229 231
78 1 233 232 234
79 1 236 235 237
80 1 239 238 240
81 1 242 241 243
82 1 245 244 246
83 1 248 247 249
84 1 251 250 252
85 1 254 253 255
86 1 257 256 258
87 1 260 259 261
88 1 263 262 264
89 1 266 265 267
90 1 269 268 270
91 1 272 271 273
92 1 275 274 276
93 1 278 277 279
94 1 281 280 282
95 1 284 283 285
96 1 287 286 288
97 1 290 289 291
98 1 293 292 294
99 1 296 295 297
100 1 299 298 300
101 1 302 301 303
102 1 305 304 306
103 1 308 307 309
104 1 311 310 312
105 1 314 313 315
106 1 317 316 318
107 1 320 319 321
108 1 323 322 324
109 1 326 325 327
110 1 329 328 330
111 1 332 331 333
112 1 335 334 336
113 1 338 337 339
114 1 341 340 342
115 1 344 343 345
116 1 347 346 348
117 1 350 349 351
118 1 353 352 354
119 1 356 355 357
120 1 359 358 360
121 1 362 361 363
122 1 365 364 366
123 1 368 367 369
124 1 371 370 372
125 1 374 373 375
126 1 377 376 378
127 1 380 379 381
128 1 383 382 384
129 1 386 385 387
130 1 389 388 390
131 1 392 391 393
132 1 395 394 396
133 1 398 397 399
134 1 401 400 402
135 1 404 403 405
136 1 407 406 408
137 1 410 409 411
138 1 413 412 414
139 1 416 415 417
140 1 419 418 420
141 1 422 421 423
142 1 425 424 426
143 1 428 427 429
144 1 431 430 432
145 1 434 433 435
146 1 437 436 438
147 1 440 439 441
148 1 443 442 444
149 1 446 445 447
150 1 449 448 450
151 1 452 451 453
152 1 455 454 456
153 1 458 457 459
154 1 461 460 462
155 1 464 463 465
156 1 467 466 468
157 1 470 469 471
158 1 473 472 474
159 1 476 475 477
160 1 479 478 480
161 1 482 481 483
162 1 485 484 486
163 1 488 487 489
164 1 491 490 492
165 1 494 493 495
166 1 497 496 498
167 1 500 499 501
168 1 503 502 504
169 1 506 505 507
170 1 509 508 510
171 1 512 511 513
172 1 515 514 516
173 1 518 517 519
174 1 521 520 522
175 1 524 523 525
176 1 527 526 528
177 1 530 529 531
178 1 533 532 534
179 1 536 535 537
180 1 539 538 540
181 1 542 541 543
182 1 545 544 546
183 1 548 547 549
184 1 551 550 552
185 1 554 553 555
186 1 557 556 558
187 1 560 559 561
188 1 563 562 564
189 1 566 565 567
190 1 569 568 570
191 1 572 571 573
192 1 575 574 576
193 1 578 577 579
194 1 581 580 582
195 1 584 583 585
196 1 587 586 588
197 1 590 589 591
198 1 593 592 594
199 1 596 595 597
200 1 599 598 600
201 1 602 601 603
202 1 605 604 606
203 1 608 607 609
204 1 611 610 612
205 1 614 613 615
206 1 617 616 618
207 1 620 619 621
208 1 623 622 624
209 1 626 625 627
210 1 629 628 630
211 1 632 631 633
212 1 635 634 636
213 1 638 637 639
214 1 641 640 642
215 1 644 643 645
216 1 647 646 648
217 1 650 649 651
218 1 653 652 654
219 1 656 655 657
220 1 659 658 660
221 1 662 661 663
222 1 665 664 666
223 1 668 667 669
224 1 671 670 672
225 1 674 673 675
226 1 677 676 678
227 1 680 679 681
228 1 683 682 684
229 1 686 685 687
230 1 689 688 690
231 1 692 691 693
232 1 695 694 696
233 1 698 697 699
234 1 701 700 702
235 1 704 703 705
236 1 707 706 708
237 1 710 709 711
238 1 713 712 714
239 1 716 715 717
240 1 719 718 720
241 1 722 721 723
242 1 725 724 726
243 1 728 727 729
244 1 731 730 732
245 1 734 733 735
246 1 737 736 738
247 1 740 739 741
248 1 743 742 744
249 1 746 745 747
250 1 749 748 750
251 1 752 751 753
252 1 755 754 756
253 1 758 757 759
254 1 761 760 762
255 1 764 763 765
256 1 767 766 768
257 1 770 769 771
258 1 773 772 774
259 1 776 775 777
260 1 779 778 780
261 1 782 781 783
262 1 785 784 786
263 1 788 787 789
264 1 791 790 792
265 1 794 793 795
266 1 797 796 798
267 1 800 799 801
268 1 803 802 804
269 1 806 805 807
270 1 809 808 810
271 1 812 811 813
272 1 815 814 816
273 1 818 817 819
274 1 821 820 822
275 1 824 823 825
276 1 827 826 828
277 1 830 829 831
278 1 833 832 834
279 1 836 835 837
280 1 839 838 840
281 1 842 841 843
282 1 845 844 846
283 1 848 847 849
284 1 851 850 852
285 1 854 853 855
286 1 857 856 858
287 1 860 859 861
288 1 863 862 864
289 1 866 865 867
290 1 869 868 870
291 1 872 871 873
292 1 875 874 876
293 1 878 877 879
294 1 881 880 882
295 1 884 883 885
296 1 887 886 888
297 1 890 889 891
298 1 893 892 894
299 1 896 895 897
300 1 899 898 900
301 1 902 901 903
302 1 905 904 906
303 1 908 907 909
304 1 911 910 912
305 1 914 913 915
306 1 917 916 918
307 1 920 919 921
308 1 923 922 924
309 1 926 925 927
310 1 929 928 930
311 1 932 931 933
312 1 935 934 936
313 1 938 937 939
314 1 941 940 942
315 1 944 943 945
316 1 947 946 948
317 1 950 949 951
318 1 953 952 954
319 1 956 955 957
320 1 959 958 960
321 1 962 961 963
322 1 965 964 966
323 1 968 967 969
324 1 971 970 972
325 1 974 973 975
326 1 977 976 978
327 1 980 979 981
328 1 983 982 984
329 1 986 985 987
330 1 989 988 990
331 1 992 991 993
332 1 995 994 996
333 1 998 997 999
334 1 1001 1000 1002
335 1 1004 1003 1005
336 1 1007 1006 1008
337 1 1010 1009 1011
338 1 1013 1012 1014
339 1 1016 1015 1017
340 1 1019 1018 1020
341 1 1022 1021 1023
342 1 1025 1024 1026
343 1 1028 1027 1029
344 1 1031 1030 1032
345 1 1034 1033 1035
346 1 1037 1036 1038
347 1 1040 1039 1041
348 1 1043 1042 1044
349 1 1046 1045 1047
350 1 1049 1048 1050
351 1 1052 1051 1053
352 1 1055 1054 1056
353 1 1058 1057 1059
354 1 1061 1060 1062
355 1 1064 1063 1065
356 1 1067 1066 1068
357 1 1070 1069 1071
358 1 1073 1072 1074
359 1 1076 1075 1077
360 1 1079 1078 1080
361 1 1082 1081 1083
362 1 1085 1084 1086
363 1 1088 1087 1089
364 1 1091 1090 1092
365 1 1094 1093 1095
366 1 1097 1096 1098
367 1 1100 1099 1101
368 1 1103 1102 1104
369 1 1106 1105 1107
370 1 1109 1108 1110
371 1 1112 1111 1113
372 1 1115 1114 1116
373 1 1118 1117 1119
374 1 1121 1120 1122
375 1 1124 1123 1125
376 1 1127 1126 1128
377 1 1130 1129 1131
378 1 1133 1132 1134
379 1 1136 1135 1137
380 1 1139 1138 1140
381 1 1142 1141 1143
382 1 1145 1144 1146
383 1 1148 1147 1149
384 1 1151 1150 1152
385 1 1154 1153 1155
386 1 1157 1156 1158
387 1 1160 1159 1161
388 1 1163 1162 1164
389 1 1166 1165 1167
390 1 1169 1168 1170
391 1 1172 1171 1173
392 1 1175 1174 1176
393 1 1178 1177 1179
394 1 1181 1180 1182
395 1 1184 1183 1185
396 1 1187 1186 1188
397 1 1190 1189 1191
398 1 1193 1192 1194
399 1 1196 1195 1197
400 1 1199 1198 1200
401 1 1202 1201 1203
402 1 1205 1204 1206
403 1 1208 1207 1209
404 1 1211 1210 1212
405 1 1214 1213 1215
406 1 1217 1216 1218
407 1 1220 1219 1221
408 1 1223 1222 1224
409 1 1226 1225 1227
410 1 1229 1228 1230
411 1 1232 1231 1233
412 1 1235 1234 1236
413 1 1238 1237 1239
414 1 1241 1240 1242
415 1 1244 1243 1245
416 1 1247 1246 1248
417 1 1250 1249 1251
418 1 1253 1252 1254
419 1 1256 1255 1257
420 1 1259 1258 1260
421 1 1262 1261 1263
422 1 1265 1264 1266
423 1 1268 1267 1269
424 1 1271 1270 1272
425 1 1274 1273 1275
426 1 1277 1276 1278
427 1 1280 1279 1281
428 1 1283 1282 1284
429 1 1286 1285 1287
430 1 1289 1288 1290
431 1 1292 1291 1293
432 1 1295 1294 1296
433 1 1298 1297 1299
434 1 1301 1300 1302
435 1 1304 1303 1305
436 1 1307 1306 1308
437 1 1310 1309 1311
438 1 1313 1312 1314
439 1 1316 1315 1317
440 1 1319 1318 1320
441 1 1322 1321 1323
442 1 1325 1324 1326
443 1 1328 1327 1329
444 1 1331 1330 1332
445 1 1334 1333 1335
446 1 1337 1336 1338
447 1 1340 1339 1341
448 1 1343 1342 1344
449 1 1346 1345 1347
450 1 1349 1348 1350
451 1 1352 1351 1353
452 1 1355 1354 1356
453 1 1358 1357 1359
454 1 1361 1360 1362
455 1 1364 1363 1365
456 1 1367 1366 1368
457 1 1370 1369 1371
458 1 1373 1372 1374
459 1 1376 1375 1377
460 1 1379 1378 1380
461 1 1382 1381 1383
462 1 1385 1384 1386
463 1 1388 1387 1389
464 1 1391 1390 1392
465 1 1394 1393 1395
466 1 1397 1396 1398
467 1 1400 1399 1401
468 1 1403 1402 1404
469 1 1406 1405 1407
470 1 1409 1408 1410
471 1 1412 1411 1413
472 1 1415 1414 1416
473 1 1418 1417 1419
474 1 1421 1420 1422
475 1 1424 1423 1425
476 1 1427 1426 1428
477 1 1430 1429 1431
478 1 1433 1432 1434
479 1 1436 1435 1437
480 1 1439 1438 1440
481 1 1442 1441 1443
482 1 1445 1444 1446
483 1 1448 1447 1449
484 1 1451 1450 1452
485 1 1454 1453 1455
486 1 1457 1456 1458
487 1 1460 1459 1461
488 1 1463 1462 1464
489 1 1466 1465 1467
490 1 1469 1468 1470
491 1 1472 1471 1473
492 1 1475 1474 1476
493 1 1478 1477 1479
494 1 1481 1480 1482
495 1 1484 1483 1485
496 1 1487 1486 1488
497 1 1490 1489 1491
498 1 1493 1492 1494
499 1 1496 1495 1497
500 1 1499 1498 1500
501 1 1502 1501 1503
502 1 1505 1504 1506
503 1 1508 1507 1509
504 1 1511 1510 1512
505 1 1514 1513 1515
506 1 1517 1516 1518
507 1 1520 1519 1521
508 1 1523 1522 1524
509 1 1526 1525 1527
510 1 1529 1528 1530
511 1 1532 1531 1533
512 1 1535 1534 1536
513 1 1538 1537 1539
514 1 1541 1540 1542
515 1 1544 1543 1545
516 1 1547 1546 1548
517 1 1550 1549 1551
518 1 1553 1552 1554
519 1 1556 1555 1557
520 1 1559 1558 1560
521 1 1562 1561 1563
522 1 1565 1564 1566
523 1 1568 1567 1569
524 1 1571 1570 1572
525 1 1574 1573 1575
526 1 1577 1576 1578
527 1 1580 1579 1581
528 1 1583 1582 1584
529 1 1586 1585 1587
530 1 1589 1588 1590
531 1 1592 1591 1593
532 1 1595 1594 1596
533 1 1598 1597 1599
534 1 1601 1600 1602
535 1 1604 1603 1605
536 1 1607 1606 1608
537 1 1610 1609 1611
538 1 1613 1612 1614
539 1 1616 1615 1617
540 1 1619 1618 1620
541 1 1622 1621 1623
542 1 1625 1624 1626
543 1 1628 1627 1629
544 1 1631 1630 1632
545 1 1634 1633 1635
546 1 1637 1636 1638
547 1 1640 1639 1641
548 1 1643 1642 1644
549 1 1646 1645 1647
550 1 1649 1648 1650
551 1 1652 1651 1653
552 1 1655 1654 1656
553 1 1658 1657 1659
554 1 1661 1660 1662
555 1 1664 1663 1665
556 1 1667 1666 1668
557 1 1670 1669 1671
558 1 1673 1672 1674
559 1 1676 1675 1677
560 1 1679 1678 1680
561 1 1682 1681 1683
562 1 1685 1684 1686
563 1 1688 1687 1689
564 1 1691 1690 1692
565 1 1694 1693 1695
566 1 1697 1696 1698
567 1 1700 1699 1701
568 1 1703 1702 1704
569 1 1706 1705 1707
570 1 1709 1708 1710
571 1 1712 1711 1713
572 1 1715 1714 1716
573 1 1718 1717 1719
574 1 1721 1720 1722
575 1 1724 1723 1725
576 1 1727 1726 1728
577 1 1730 1729 1731
578 1 1733 1732 1734
579 1 1736 1735 1737
580 1 1739 1738 1740
581 1 1742 1741 1743
582 1 1745 1744 1746
583 1 1748 1747 1749
584 1 1751 1750 1752
585 1 1754 1753 1755
586 1 1757 1756 1758
587 1 1760 1759 1761
588 1 1763 1762 1764
589 1 1766 1765 1767
590 1 1769 1768 1770
591 1 1772 1771 1773
592 1 1775 1774 1776
593 1 1778 1777 1779
594 1 1781 1780 1782
595 1 1784 1783 1785
596 1 1787 1786 1788
597 1 1790 1789 1791
598 1 1793 1792 1794
599 1 1796 1795 1797
600 1 1799 1798 1800
601 1 1802 1801 1803
602 1 1805 1804 1806
603 1 1808 1807 1809
604 1 1811 1810 1812
605 1 1814 1813 1815
606 1 1817 1816 1818
607 1 1820 1819 1821
608 1 1823 1822 1824
609 1 1826 1825 1827
610 1 1829 1828 1830
611 1 1832 1831 1833
612 1 1835 1834 1836
613 1 1838 1837 1839
614 1 1841 1840 1842
615 1 1844 1843 1845
616 1 1847 1846 1848
617 1 1850 1849 1851
618 1 1853 1852 1854
619 1 1856 1855 1857
620 1 1859 1858 1860
621 1 1862 1861 1863
622 1 1865 1864 1866
623 1 1868 1867 1869
624 1 1871 1870 1872
625 1 1874 1873 1875
626 1 1877 1876 1878
627 1 1880 1879 1881
628 1 1883 1882 1884
629 1 1886 1885 1887
630 1 1889 1888 1890
631 1 1892 1891 1893
632 1 1895 1894 1896
633 1 1898 1897 1899
634 1 1901 1900 1902
635 1 1904 1903 1905
636 1 1907 1906 1908
637 1 1910 1909 1911
638 1 1913 1912 1914
639 1 1916 1915 1917
640 1 1919 1918 1920
641 1 1922 1921 1923
642 1 1925 1924 1926
643 1 1928 1927 1929
644 1 1931 1930 1932
645 1 1934 1933 1935
646 1 1937 1936 1938
647 1 1940 1939 1941
648 1 1943 1942 1944
649 1 1946 1945 1947
650 1 1949 1948 1950
651 1 1952 1951 1953
652 1 1955 1954 1956
653 1 1958 1957 1959
654 1 1961 1960 1962
655 1 1964 1963 1965
656 1 1967 1966 1968
657 1 1970 1969 1971
658 1 1973 1972 1974
659 1 1976 1975 1977
660 1 1979 1978 1980
661 1 1982 1981 1983
662 1 1985 1984 1986
663 1 1988 1987 1989
664 1 1991 1990 1992
665 1 1994 1993 1995
666 1 1997 1996 1998
667 1 2000 1999 2001
668 1 2003 2002 2004
669 1 2006 2005 2007
670 1 2009 2008 2010
671 1 2012 2011 2013
672 1 2015 2014 2016
673 1 2018 2017 2019
674 1 2021 2020 2022
675 1 2024 2023 2025
676 1 2027 2026 2028
677 1 2030 2029 2031
678 1 2033 2032 2034
679 1 2036 2035 2037
680 1 2039 2038 2040
681 1 2042 2041 2043
682 1 2045 2044 2046
683 1 2048 2047 2049
684 1 2051 2050 2052
685 1 2054 2053 2055
686 1 2057 2056 2058
687 1 2060 2059 2061
688 1 2063 2062 2064
689 1 2066 2065 2067
690 1 2069 2068 2070
691 1 2072 2071 2073
692 1 2075 2074 2076
693 1 2078 2077 2079
694 1 2081 2080 2082
695 1 2084 2083 2085
696 1 2087 2086 2088
697 1 2090 2089 2091
698 1 2093 2092 2094
699 1 2096 2095 2097
700 1 2099 2098 2100
701 1 2102 2101 2103
702 1 2105 2104 2106
703 1 2108 2107 2109
704 1 2111 2110 2112
705 1 2114 2113 2115
706 1 2117 2116 2118
707 1 2120 2119 2121
708 1 2123 2122 2124
709 1 2126 2125 2127
710 1 2129 2128 2130
711 1 2132 2131 2133
712 1 2135 2134 2136
713 1 2138 2137 2139
714 1 2141 2140 2142
715 1 2144 2143 2145
716 1 2147 2146 2148
717 1 2150 2149 2151
718 1 2153 2152 2154
719 1 2156 2155 2157
720 1 2159 2158 2160
721 1 2162 2161 2163
722 1 2165 2164 2166
723 1 2168 2167 2169
724 1 2171 2170 2172
725 1 2174 2173 2175
726 1 2177 2176 2178
727 1 2180 2179 2181
728 1 2183 2182 2184
729 1 2186 2185 2187
730 1 2189 2188 2190
731 1 2192 2191 2193
732 1 2195 2194 2196
733 1 2198 2197 2199
734 1 2201 2200 2202
735 1 2204 2203 2205
736 1 2207 2206 2208
737 1 2210 2209 2211
738 1 2213 2212 2214
739 1 2216 2215 2217
740 1 2219 2218 2220
741 1 2222 2221 2223
742 1 2225 2224 2226
743 1 2228 2227 2229
744 1 2231 2230 2232
745 1 2234 2233 2235
746 1 2237 2236 2238
747 1 2240 2239 2241
748 1 2243 2242 2244
749 1 2246 2245 2247
750 1 2249 2248 2250
751 1 2252 2251 2253
752 1 2255 2254 2256
753 1 2258 2257 2259
754 1 2261 2260 2262
755 1 2264 2263 2265
756 1 2267 2266 2268
757 1 2270 2269 2271
758 1 2273 2272 2274
759 1 2276 2275 2277
760 1 2279 2278 2280
761 1 2282 2281 2283
762 1 2285 2284 2286
763 1 2288 2287 2289
764 1 2291 2290 2292
765 1 2294 2293 2295
766 1 2297 2296 2298
767 1 2300 2299 2301
768 1 2303 2302 2304
769 1 2306 2305 2307
770 1 2309 2308 2310
771 1 2312 2311 2313
772 1 2315 2314 2316
773 1 2318 2317 2319
774 1 2321 2320 2322
775 1 2324 2323 2325
776 1 2327 2326 2328
777 1 2330 2329 2331
778 1 2333 2332 2334
779 1 2336 2335 2337
780 1 2339 2338 2340
781 1 2342 2341 2343
782 1 2345 2344 2346
783 1 2348 2347 2349
784 1 2351 2350 2352
785 1 2354 2353 2355
786 1 2357 2356 2358
787 1 2360 2359 2361
788 1 2363 2362 2364
789 1 2366 2365 2367
790 1 2369 2368 2370
791 1 2372 2371 2373
792 1 2375 2374 2376
793 1 2378 2377 2379
794 1 2381 2380 2382
795 1 2384 2383 2385
796 1 2387 2386 2388
797 1 2390 2389 2391
798 1 2393 2392 2394
799 1 2396 2395 2397
800 1 2399 2398 2400
801 1 2402 2401 2403
802 1 2405 2404 2406
803 1 2408 2407 2409
804 1 2411 2410 2412
805 1 2414 2413 2415
806 1 2417 2416 2418
807 1 2420 2419 2421
808 1 2423 2422 2424
809 1 2426 2425 2427
810 1 2429 2428 2430
811 1 2432 2431 2433
812 1 2435 2434 2436
813 1 2438 2437 2439
814 1 2441 2440 2442
815 1 2444 2443 2445
816 1 2447 2446 2448
817 1 2450 2449 2451
818 1 2453 2452 2454
819 1 2456 2455 2457
820 1 2459 2458 2460
821 1 2462 2461 2463
822 1 2465 2464 2466
823 1 2468 2467 2469
824 1 2471 2470 2472
825 1 2474 2473 2475
826 1 2477 2476 2478
827 1 2480 2479 2481
828 1 2483 2482 2484
829 1 2486 2485 2487
830 1 2489 2488 2490
831 1 2492 2491 2493
832 1 2495 2494 2496
833 1 2498 2497 2499
834 1 2501 2500 2502
835 1 2504 2503 2505
836 1 2507 2506 2508
837 1 2510 2509 2511
838 1 2513 2512 2514
839 1 2516 2515 2517
840 1 2519 2518 2520
841 1 2522 2521 2523
842 1 2525 2524 2526
843 1 2528 2527 2529
844 1 2531 2530 2532
845 1 2534 2533 2535
846 1 2537 2536 2538
847 1 2540 2539 2541
848 1 2543 2542 2544
849 1 2546 2545 2547
850 1 2549 2548 2550
851 1 2552 2551 2553
852 1 2555 2554 2556
853 1 2558 2557 2559
854 1 2561 2560 2562
855 1 2564 2563 2565
856 1 2567 2566 2568
857 1 2570 2569 2571
858 1 2573 2572 2574
859 1 2576 2575 2577
860 1 2579 2578 2580
861 1 2582 2581 2583
862 1 2585 2584 2586
863 1 2588 2587 2589
864 1 2591 2590 2592
865 1 2594 2593 2595
866 1 2597 2596 2598
867 1 2600 2599 2601
868 1 2603 2602 2604
869 1 2606 2605 2607
870 1 2609 2608 2610
871 1 2612 2611 2613
872 1 2615 2614 2616
873 1 2618 2617 2619
874 1 2621 2620 2622
875 1 2624 2623 2625
876 1 2627 2626 2628
877 1 2630 2629 2631
878 1 2633 2632 2634
879 1 2636 2635 2637
880 1 2639 2638 2640
881 1 2642 2641 2643
882 1 2645 2644 2646
883 1 2648 2647 2649
884 1 2651 2650 2652
885 1 2654 2653 2655
886 1 2657 2656 2658
887 1 2660 2659 2661
888 1 2663 2662 2664
889 1 2666 2665 2667
890 1 2669 2668 2670
891 1 2672 2671 2673
892 1 2675 2674 2676
893 1 2678 2677 2679
894 1 2681 2680 2682
895 1 2684 2683 2685
896 1 2687 2686 2688
897 1 2690 2689 2691
898 1 2693 2692 2694
899 1 2696 2695 2697
900 1 2699 2698 2700
901 1 2702 2701 2703
902 1 2705 2704 2706
903 1 2708 2707 2709
904 1 2711 2710 2712
905 1 2714 2713 2715
906 1 2717 2716 2718
907 1 2720 2719 2721
908 1 2723 2722 2724
909 1 2726 2725 2727
910 1 2729 2728 2730
911 1 2732 2731 2733
912 1 2735 2734 2736
913 1 2738 2737 2739
914 1 2741 2740 2742
915 1 2744 2743 2745
916 1 2747 2746 2748
917 1 2750 2749 2751
918 1 2753 2752 2754
919 1 2756 2755 2757
920 1 2759 2758 2760
921 1 2762 2761 2763
922 1 2765 2764 2766
923 1 2768 2767 2769
924 1 2771 2770 2772
925 1 2774 2773 2775
926 1 2777 2776 2778
927 1 2780 2779 2781
928 1 2783 2782 2784
929 1 2786 2785 2787
930 1 2789 2788 2790
931 1 2792 2791 2793
932 1 2795 2794 2796
933 1 2798 2797 2799
934 1 2801 2800 2802
935 1 2804 2803 2805
936 1 2807 2806 2808
937 1 2810 2809 2811
938 1 2813 2812 2814
939 1 2816 2815 2817
940 1 2819 2818 2820
941 1 2822 2821 2823
942 1 2825 2824 2826
943 1 2828 2827 2829
944 1 2831 2830 2832
945 1 2834 2833 2835
946 1 2837 2836 2838
947 1 2840 2839 2841
948 1 2843 2842 2844
949 1 2846 2845 2847
950 1 2849 2848 2850
951 1 2852 2851 2853
952 1 2855 2854 2856
953 1 2858 2857 2859
954 1 2861 2860 2862
955 1 2864 2863 2865
956 1 2867 2866 2868
957 1 2870 2869 2871
958 1 2873 2872 2874
959 1 2876 2875 2877
960 1 2879 2878 2880
961 1 2882 2881 2883
962 1 2885 2884 2886
963 1 2888 2887 2889
964 1 2891 2890 2892
965 1 2894 2893 2895
966 1 2897 2896 2898
967 1 2900 2899 2901
968 1 2903 2902 2904
969 1 2906 2905 2907
970 1 2909 2908 2910
971 1 2912 2911 2913
972 1 2915 2914 2916
973 1 2918 2917 2919
974 1 2921 2920 2922
975 1 2924 2923 2925
976 1 2927 2926 2928
977 1 2930 2929 2931
978 1 2933 2932 2934
979 1 2936 2935 2937
980 1 2939 2938 2940
981 1 2942 2941 2943
982 1 2945 2944 2946
983 1 2948 2947 2949
984 1 2951 2950 2952
985 1 2954 2953 2955
986 1 2957 2956 2958
987 1 2960 2959 2961
988 1 2963 2962 2964
989 1 2966 2965 2967
990 1 2969 2968 2970
991 1 2972 2971 2973
992 1 2975 2974 2976
993 1 2978 2977 2979
994 1 2981 2980 2982
995 1 2984 2983 2985
996 1 2987 2986 2988
997 1 2990 2989 2991
998 1 2993 2992 2994
999 1 2996 2995 2997
1000 1 2999 2998 3000
1001 1 3002 3001 3003
1002 1 3005 3004 3006
1003 1 3008 3007 3009
1004 1 3011 3010 3012
1005 1 3014 3013 3015
1006 1 3017 3016 3018
1007 1 3020 3019 3021
1008 1 3023 3022 3024
1009 1 3026 3025 3027
1010 1 3029 3028 3030
1011 1 3032 3031 3033
1012 1 3035 3034 3036
1013 1 3038 3037 3039
1014 1 3041 3040 3042
1015 1 3044 3043 3045
1016 1 3047 3046 3048
1017 1 3050 3049 3051
1018 1 3053 3052 3054
1019 1 3056 3055 3057
1020 1 3059 3058 3060
1021 1 3062 3061 3063
1022 1 3065 3064 3066
1023 1 3068 3067 3069
1024 1 3071 3070 3072
1025 1 3074 3073 3075
1026 1 3077 3076 3078
1027 1 3080 3079 3081
1028 1 3083 3082 3084
1029 1 3086 3085 3087
1030 1 3089 3088 3090
1031 1 3092 3091 3093
1032 1 3095 3094 3096
1033 1 3098 3097 3099
1034 1 3101 3100 3102
1035 1 3104 3103 3105
1036 1 3107 3106 3108
1037 1 3110 3109 3111
1038 1 3113 3112 3114
1039 1 3116 3115 3117
1040 1 3119 3118 3120
1041 1 3122 3121 3123
1042 1 3125 3124 3126
1043 1 3128 3127 3129
1044 1 3131 3130 3132
1045 1 3134 3133 3135
1046 1 3137 3136 3138
1047 1 3140 3139 3141
1048 1 3143 3142 3144
1049 1 3146 3145 3147
1050 1 3149 3148 3150
1051 1 3152 3151 3153
1052 1 3155 3154 3156
1053 1 3158 3157 3159
1054 1 3161 3160 3162
1055 1 3164 3163 3165
1056 1 3167 3166 3168
1057 1 3170 3169 3171
1058 1 3173 3172 3174
1059 1 3176 3175 3177
1060 1 3179 3178 3180
1061 1 3182 3181 3183
1062 1 3185 3184 3186
1063 1 3188 3187 3189
1064 1 3191 3190 3192
1065 1 3194 3193 3195
1066 1 3197 3196 3198
1067 1 3200 3199 3201
1068 1 3203 3202 3204
1069 1 3206 3205 3207
1070 1 3209 3208 3210
1071 1 3212 3211 3213
1072 1 3215 3214 3216
1073 1 3218 3217 3219
1074 1 3221 3220 3222
1075 1 3224 3223 3225
1076 1 3227 3226 3228
1077 1 3230 3229 3231
1078 1 3233 3232 3234
1079 1 3236 3235 3237
1080 1 3239 3238 3240
1081 1 3242 3241 3243
1082 1 3245 3244 3246
1083 1 3248 3247 3249
1084 1 3251 3250 3252
1085 1 3254 3253 3255
1086 1 3257 3256 3258
1087 1 3260 3259 3261
1088 1 3263 3262 3264
1089 1 3266 3265 3267
1090 1 3269 3268 3270
1091 1 3272 3271 3273
1092 1 3275 3274 3276
1093 1 3278 3277 3279
1094 1 3281 3280 3282
1095 1 3284 3283 3285
1096 1 3287 3286 3288
1097 1 3290 3289 3291
1098 1 3293 3292 3294
1099 1 3296 3295 3297
1100 1 3299 3298 3300
1101 1 3302 3301 3303
1102 1 3305 3304 3306
1103 1 3308 3307 3309
1104 1 3311 3310 3312
1105 1 3314 3313 3315
1106 1 3317 3316 3318
1107 1 3320 3319 3321
1108 1 3323 3322 3324
1109 1 3326 3325 3327
1110 1 3329 3328 3330
1111 1 3332 3331 3333
1112 1 3335 3334 3336
1113 1 3338 3337 3339
1114 1 3341 3340 3342
1115 1 3344 3343 3345
1116 1 3347 3346 3348
1117 1 3350 3349 3351
1118 1 3353 3352 3354
1119 1 3356 3355 3357
1120 1 3359 3358 3360
1121 1 3362 3361 3363
1122 1 3365 3364 3366
1123 1 3368 3367 3369
1124 1 3371 3370 3372
1125 1 3374 3373 3375
1126 1 3377 3376 3378
1127 1 3380 3379 3381
1128 1 3383 3382 3384
1129 1 3386 3385 3387
1130 1 3389 3388 3390
1131 1 3392 3391 3393
1132 1 3395 3394 3396
1133 1 3398 3397 3399
1134 1 3401 3400 3402
1135 1 3404 3403 3405
1136 1 3407 3406 3408
1137 1 3410 3409 3411
1138 1 3413 3412 3414
1139 1 3416 3415 3417
1140 1 3419 3418 3420
1141 1 3422 3421 3423
1142 1 3425 3424 3426
1143 1 3428 3427 3429
1144 1 3431 3430 3432
1145 1 3434 3433 3435
1146 1 3437 3436 3438
1147 1 3440 3439 3441
1148 1 3443 3442 3444
1149 1 3446 3445 3447
1150 1 3449 3448 3450
1151 1 3452 3451 3453
1152 1 3455 3454 3456
1153 1 3458 3457 3459
1154 1 3461 3460 3462
1155 1 3464 3463 3465
1156 1 3467 3466 3468
1157 1 3470 3469 3471
1158 1 3473 3472 3474
1159 1 3476 3475 3477
1160 1 3479 3478 3480
1161 1 3482 3481 3483
1162 1 3485 3484 3486
1163 1 3488 3487 3489
1164 1 3491 3490 3492
1165 1 3494 3493 3495
1166 1 3497 3496 3498
1167 1 3500 3499 3501
1168 1 3503 3502 3504
1169 1 3506 3505 3507
1170 1 3509 3508 3510
1171 1 3512 3511 3513
1172 1 3515 3514 3516
1173 1 3518 3517 3519
1174 1 3521 3520 3522
1175 1 3524 3523 3525
1176 1 3527 3526 3528
1177 1 3530 3529 3531
1178 1 3533 3532 3534
1179 1 3536 3535 3537
1180 1 3539 3538 3540
1181 1 3542 3541 3543
1182 1 3545 3544 3546
1183 1 3548 3547 3549
1184 1 3551 3550 3552
1185 1 3554 3553 3555
1186 1 3557 3556 3558
1187 1 3560 3559 3561
1188 1 3563 3562 3564
1189 1 3566 3565 3567
1190 1 3569 3568 3570
1191 1 3572 3571 3573
1192 1 3575 3574 3576
1193 1 3578 3577 3579
1194 1 3581 3580 3582
1195 1 3584 3583 3585
1196 1 3587 3586 3588
1197 1 3590 3589 3591
1198 1 3593 3592 3594
1199 1 3596 3595 3597
1200 1 3599 3598 3600
1201 1 3602 3601 3603
1202 1 3605 3604 3606
1203 1 3608 3607 3609
1204 1 3611 3610 3612
1205 1 3614 3613 3615
1206 1 3617 3616 3618
1207 1 3620 3619 3621
1208 1 3623 3622 3624
1209 1 3626 3625 3627
1210 1 3629 3628 3630
1211 1 3632 3631 3633
1212 1 3635 3634 3636
1213 1 3638 3637 3639
1214 1 3641 3640 3642
1215 1 3644 3643 3645
1216 1 3647 3646 3648
1217 1 3650 3649 3651
1218 1 3653 3652 3654
1219 1 3656 3655 3657
1220 1 3659 3658 3660
1221 1 3662 3661 3663
1222 1 3665 3664 3666
1223 1 3668 3667 3669
1224 1 3671 3670 3672
1225 1 3674 3673 3675
1226 1 3677 3676 3678
1227 1 3680 3679 3681
1228 1 3683 3682 3684
1229 1 3686 3685 3687
1230 1 3689 3688 3690
1231 1 3692 3691 3693
1232 1 3695 3694 3696
1233 1 3698 3697 3699
1234 1 3701 3700 3702
1235 1 3704 3703 3705
1236 1 3707 3706 3708
1237 1 3710 3709 3711
1238 1 3713 3712 3714
1239 1 3716 3715 3717
1240 1 3719 3718 3720
1241 1 3722 3721 3723
1242 1 3725 3724 3726
1243 1 3728 3727 3729
1244 1 3731 3730 3732
1245 1 3734 3733 3735
1246 1 3737 3736 3738
1247 1 3740 3739 3741
1248 1 3743 3742 3744
1249 1 3746 3745 3747
1250 1 3749 3748 3750
1251 1 3752 3751 3753
1252 1 3755 3754 3756
1253 1 3758 3757 3759
1254 1 3761 3760 3762
1255 1 3764 3763 3765
1256 1 3767 3766 3768
1257 1 3770 3769 3771
1258 1 3773 3772 3774
1259 1 3776 3775 3777
1260 1 3779 3778 3780
1261 1 3782 3781 3783
1262 1 3785 3784 3786
1263 1 3788 3787 3789
1264 1 3791 3790 3792
1265 1 3794 3793 3795
1266 1 3797 3796 3798
1267 1 3800 3799 3801
1268 1 3803 3802 3804
1269 1 3806 3805 3807
1270 1 3809 3808 3810
1271 1 3812 3811 3813
1272 1 3815 3814 3816
1273 1 3818 3817 3819
1274 1 3821 3820 3822
1275 1 3824 3823 3825
1276 1 3827 3826 3828
1277 1 3830 3829 3831
1278 1 3833 3832 3834
1279 1 3836 3835 3837
1280 1 3839 3838 3840
1281 1 3842 3841 3843
1282 1 3845 3844 3846
1283 1 3848 3847 3849
1284 1 3851 3850 3852
1285 1 3854 3853 3855
1286 1 3857 3856 3858
1287 1 3860 3859 3861
1288 1 3863 3862 3864
1289 1 3866 3865 3867
1290 1 3869 3868 3870
1291 1 3872 3871 3873
1292 1 3875 3874 3876
1293 1 3878 3877 3879
1294 1 3881 3880 3882
1295 1 3884 3883 3885
1296 1 3887 3886 3888
1297 1 3890 3889 3891
1298 1 3893 3892 3894
1299 1 3896 3895 3897
1300 1 3899 3898 3900
1301 1 3902 3901 3903
1302 1 3905 3904 3906
1303 1 3908 3907 3909
1304 1 3911 3910 3912
1305 1 3914 3913 3915
1306 1 3917 3916 3918
1307 1 3920 3919 3921
1308 1 3923 3922 3924
1309 1 3926 3925 3927
1310 1 3929 3928 3930
1311 1 3932 3931 3933
1312 1 3935 3934 3936
1313 1 3938 3937 3939
1314 1 3941 3940 3942
1315 1 3944 3943 3945
1316 1 3947 3946 3948
1317 1 3950 3949 3951
1318 1 3953 3952 3954
1319 1 3956 3955 3957
1320 1 3959 3958 3960
1321 1 3962 3961 3963
1322 1 3965 3964 3966
1323 1 3968 3967 3969
1324 1 3971 3970 3972
1325 1 3974 3973 3975
1326 1 3977 3976 3978
1327 1 3980 3979 3981
1328 1 3983 3982 3984
1329 1 3986 3985 3987
1330 1 3989 3988 3990
1331 1 3992 3991 3993
1332 1 3995 3994 3996
1333 1 3998 3997 3999
1334 1 4001 4000 4002
1335 1 4004 4003 4005
1336 1 4007 4006 4008
1337 1 4010 4009 4011
1338 1 4013 4012 4014
1339 1 4016 4015 4017
1340 1 4019 4018 4020
1341 1 4022 4021 4023
1342 1 4025 4024 4026
1343 1 4028 4027 4029
1344 1 4031 4030 4032
1345 1 4034 4033 4035
1346 1 4037 4036 4038
1347 1 4040 4039 4041
1348 1 4043 4042 4044
1349 1 4046 4045 4047
1350 1 4049 4048 4050
1351 1 4052 4051 4053
1352 1 4055 4054 4056
1353 1 4058 4057 4059
1354 1 4061 4060 4062
1355 1 4064 4063 4065
1356 1 4067 4066 4068
1357 1 4070 4069 4071
1358 1 4073 4072 4074
1359 1 4076 4075 4077
1360 1 4079 4078 4080
1361 1 4082 4081 4083
1362 1 4085 4084 4086
1363 1 4088 4087 4089
1364 1 4091 4090 4092
1365 1 4094 4093 4095
1366 1 4097 4096 4098
1367 1 4100 4099 4101
1368 1 4103 4102 4104
1369 1 4106 4105 4107
1370 1 4109 4108 4110
1371 1 4112 4111 4113
1372 1 4115 4114 4116
1373 1 4118 4117 4119
1374 1 4121 4120 4122
1375 1 4124 4123 4125
1376 1 4127 4126 4128
1377 1 4130 4129 4131
1378 1 4133 4132 4134
1379 1 4136 4135 4137
1380 1 4139 4138 4140
1381 1 4142 4141 4143
1382 1 4145 4144 4146
1383 1 4148 4147 4149
1384 1 4151 4150 4152
1385 1 4154 4153 4155
1386 1 4157 4156 4158
1387 1 4160 4159 4161
1388 1 4163 4162 4164
1389 1 4166 4165 4167
1390 1 4169 4168 4170
1391 1 4172 4171 4173
1392 1 4175 4174 4176
1393 1 4178 4177 4179
1394 1 4181 4180 4182
1395 1 4184 4183 4185
1396 1 4187 4186 4188
1397 1 4190 4189 4191
1398 1 4193 4192 4194
1399 1 4196 4195 4197
1400 1 4199 4198 4200
1401 1 4202 4201 4203
1402 1 4205 4204 4206
1403 1 4208 4207 4209
1404 1 4211 4210 4212
1405 1 4214 4213 4215
1406 1 4217 4216 4218
1407 1 4220 4219 4221
1408 1 4223 4222 4224
1409 1 4226 4225 4227
1410 1 4229 4228 4230
1411 1 4232 4231 4233
1412 1 4235 4234 4236
1413 1 4238 4237 4239
1414 1 4241 4240 4242
1415 1 4244 4243 4245
1416 1 4247 4246 4248
1417 1 4250 4249 4251
1418 1 4253 4252 4254
1419 1 4256 4255 4257
1420 1 4259 4258 4260
1421 1 4262 4261 4263
1422 1 4265 4264 4266
1423 1 4268 4267 4269
1424 1 4271 4270 4272
1425 1 4274 4273 4275
1426 1 4277 4276 4278
1427 1 4280 4279 4281
1428 1 4283 4282 4284
1429 1 4286 4285 4287
1430 1 4289 4288 4290
1431 1 4292 4291 4293
1432 1 4295 4294 4296
1433 1 4298 4297 4299
1434 1 4301 4300 4302
1435 1 4304 4303 4305
1436 1 4307 4306 4308
1437 1 4310 4309 4311
1438 1 4313 4312 4314
1439 1 4316 4315 4317
1440 1 4319 4318 4320
1441 1 4322 4321 4323
1442 1 4325 4324 4326
1443 1 4328 4327 4329
1444 1 4331 4330 4332
1445 1 4334 4333 4335
1446 1 4337 4336 4338
1447 1 4340 4339 4341
1448 1 4343 4342 4344
1449 1 4346 4345 4347
1450 1 4349 4348 4350
1451 1 4352 4351 4353
1452 1 4355 4354 4356
1453 1 4358 4357 4359
1454 1 4361 4360 4362
1455 1 4364 4363 4365
1456 1 4367 4366 4368
1457 1 4370 4369 4371
1458 1 4373 4372 4374
1459 1 4376 4375 4377
1460 1 4379 4378 4380
1461 1 4382 4381 4383
1462 1 4385 4384 4386
1463 1 4388 4387 4389
1464 1 4391 4390 4392
1465 1 4394 4393 4395
1466 1 4397 4396 4398
1467 1 4400 4399 4401
1468 1 4403 4402 4404
1469 1 4406 4405 4407
1470 1 4409 4408 4410
1471 1 4412 4411 4413
1472 1 4415 4414 4416
1473 1 4418 4417 4419
1474 1 4421 4420 4422
1475 1 4424 4423 4425
1476 1 4427 4426 4428
1477 1 4430 4429 4431
1478 1 4433 4432 4434
1479 1 4436 4435 4437
1480 1 4439 4438 4440
1481 1 4442 4441 4443
1482 1 4445 4444 4446
1483 1 4448 4447 4449
1484 1 4451 4450 4452
1485 1 4454 4453 4455
1486 1 4457 4456 4458
1487 1 4460 4459 4461
1488 1 4463 4462 4464
1489 1 4466 4465 4467
1490 1 4469 4468 4470
1491 1 4472 4471 4473
1492 1 4475 4474 4476
1493 1 4478 4477 4479
1494 1 4481 4480 4482
1495 1 4484 4483 4485
1496 1 4487 4486 4488
1497 1 4490 4489 4491
1498 1 4493 4492 4494
1499 1 4496 4495 4497
1500 1 4499 4498 4500
1501 1 4502 4501 4503
1502 1 4505 4504 4506
1503 1 4508 4507 4509
1504 1 4511 4510 4512
1505 1 4514 4513 4515
1506 1 4517 4516 4518
1507 1 4520 4519 4521
1508 1 4523 4522 4524
1509 1 4526 4525 4527
1510 1 4529 4528 4530
1511 1 4532 4531 4533
1512 1 4535 4534 4536
1513 1 4538 4537 4539
1514 1 4541 4540 4542
1515 1 4544 4543 4545
1516 1 4547 4546 4548
1517 1 4550 4549 4551
1518 1 4553 4552 4554
1519 1 4556 4555 4557
1520 1 4559 4558 4560
1521 1 4562 4561 4563
1522 1 4565 4564 4566
1523 1 4568 4567 4569
1524 1 4571 4570 4572
1525 1 4574 4573 4575
1526 1 4577 4576 4578
1527 1 4580 4579 4581
1528 1 4583 4582 4584
1529 1 4586 4585 4587
1530 1 4589 4588 4590
1531 1 4592 4591 4593
1532 1 4595 4594 4596
1533 1 4598 4597 4599
1534 1 4601 4600 4602
1535 1 4604 4603 4605
1536 1 4607 4606 4608
1537 1 4610 4609 4611
1538 1 4613 4612 4614
1539 1 4616 4615 4617
1540 1 4619 4618 4620
1541 1 4622 4621 4623
1542 1 4625 4624 4626
1543 1 4628 4627 4629
1544 1 4631 4630 4632
1545 1 4634 4633 4635
1546 1 4637 4636 4638
1547 1 4640 4639 4641
1548 1 4643 4642 4644
1549 1 4646 4645 4647
1550 1 4649 4648 4650
1551 1 4652 4651 4653
1552 1 4655 4654 4656
1553 1 4658 4657 4659
1554 1 4661 4660 4662
1555 1 4664 4663 4665
1556 1 4667 4666 4668
1557 1 4670 4669 4671
1558 1 4673 4672 4674
1559 1 4676 4675 4677
1560 1 4679 4678 4680
1561 1 4682 4681 4683
1562 1 4685 4684 4686
1563 1 4688 4687 4689
1564 1 4691 4690 4692
1565 1 4694 4693 4695
1566 1 4697 4696 4698
1567 1 4700 4699 4701
1568 1 4703 4702 4704
1569 1 4706 4705 4707
1570 1 4709 4708 4710
1571 1 4712 4711 4713
1572 1 4715 4714 4716
1573 1 4718 4717 4719
1574 1 4721 4720 4722
1575 1 4724 4723 4725
1576 1 4727 4726 4728
1577 1 4730 4729 4731
1578 1 4733 4732 4734
1579 1 4736 4735 4737
1580 1 4739 4738 4740
1581 1 4742 4741 4743
1582 1 4745 4744 4746
1583 1 4748 4747 4749
1584 1 4751 4750 4752
1585 1 4754 4753 4755
1586 1 4757 4756 4758
1587 1 4760 4759 4761
1588 1 4763 4762 4764
1589 1 4766 4765 4767
1590 1 4769 4768 4770
1591 1 4772 4771 4773
1592 1 4775 4774 4776
1593 1 4778 4777 4779
1594 1 4781 4780 4782
1595 1 4784 4783 4785
1596 1 4787 4786 4788
1597 1 4790 4789 4791
1598 1 4793 4792 4794
1599 1 4796 4795 4797
1600 1 4799 4798 4800
1601 1 4802 4801 4803
1602 1 4805 4804 4806
1603 1 4808 4807 4809
1604 1 4811 4810 4812
1605 1 4814 4813 4815
1606 1 4817 4816 4818
1607 1 4820 4819 4821
1608 1 4823 4822 4824
1609 1 4826 4825 4827
1610 1 4829 4828 4830
1611 1 4832 4831 4833
1612 1 4835 4834 4836
1613 1 4838 4837 4839
1614 1 4841 4840 4842
1615 1 4844 4843 4845
1616 1 4847 4846 4848
1617 1 4850 4849 4851
1618 1 4853 4852 4854
1619 1 4856 4855 4857
1620 1 4859 4858 4860
1621 1 4862 4861 4863
1622 1 4865 4864 4866
1623 1 4868 4867 4869
1624 1 4871 4870 4872
1625 1 4874 4873 4875
1626 1 4877 4876 4878
1627 1 4880 4879 4881
1628 1 4883 4882 4884
1629 1 4886 4885 4887
1630 1 4889 4888 4890
1631 1 4892 4891 4893
1632 1 4895 4894 4896
1633 1 4898 4897 4899
1634 1 4901 4900 4902
1635 1 4904 4903 4905
1636 1 4907 4906 4908
1637 1 4910 4909 4911
1638 1 4913 4912 4914
1639 1 4916 4915 4917
1640 1 4919 4918 4920
1641 1 4922 4921 4923
1642 1 4925 4924 4926
1643 1 4928 4927 4929
1644 1 4931 4930 4932
1645 1 4934 4933 4935
1646 1 4937 4936 4938
1647 1 4940 4939 4941
1648 1 4943 4942 4944
1649 1 4946 4945 4947
1650 1 4949 4948 4950
1651 1 4952 4951 4953
1652 1 4955 4954 4956
1653 1 4958 4957 4959
1654 1 4961 4960 4962
1655 1 4964 4963 4965
1656 1 4967 4966 4968
1657 1 4970 4969 4971
1658 1 4973 4972 4974
1659 1 4976 4975 4977
1660 1 4979 4978 4980
1661 1 4982 4981 4983
1662 1 4985 4984 4986
1663 1 4988 4987 4989
1664 1 4991 4990 4992
1665 1 4994 4993 4995
1666 1 4997 4996 4998
1667 1 5000 4999 5001
1668 1 5003 5002 5004
1669 1 5006 5005 5007
1670 1 5009 5008 5010
1671 1 5012 5011 5013
1672 1 5015 5014 5016
1673 1 5018 5017 5019
1674 1 5021 5020 5022
1675 1 5024 5023 5025
1676 1 5027 5026 5028
1677 1 5030 5029 5031
1678 1 5033 5032 5034
1679 1 5036 5035 5037
1680 1 5039 5038 5040
1681 1 5042 5041 5043
1682 1 5045 5044 5046
1683 1 5048 5047 5049
1684 1 5051 5050 5052
1685 1 5054 5053 5055
1686 1 5057 5056 5058
1687 1 5060 5059 5061
1688 1 5063 5062 5064
1689 1 5066 5065 5067
1690 1 5069 5068 5070
1691 1 5072 5071 5073
1692 1 5075 5074 5076
1693 1 5078 5077 5079
1694 1 5081 5080 5082
1695 1 5084 5083 5085
1696 1 5087 5086 5088
1697 1 5090 5089 5091
1698 1 5093 5092 5094
1699 1 5096 5095 5097
1700 1 5099 5098 5100
1701 1 5102 5101 5103
1702 1 5105 5104 5106
1703 1 5108 5107 5109
1704 1 5111 5110 5112
1705 1 5114 5113 5115
1706 1 5117 5116 5118
1707 1 5120 5119 5121
1708 1 5123 5122 5124
1709 1 5126 5125 5127
1710 1 5129 5128 5130
1711 1 5132 5131 5133
1712 1 5135 5134 5136
1713 1 5138 5137 5139
1714 1 5141 5140 5142
1715 1 5144 5143 5145
1716 1 5147 5146 5148
1717 1 5150 5149 5151
1718 1 5153 5152 5154
1719 1 5156 5155 5157
1720 1 5159 5158 5160
1721 1 5162 5161 5163
1722 1 5165 5164 5166
1723 1 5168 5167 5169
1724 1 5171 5170 5172
1725 1 5174 5173 5175
1726 1 5177 5176 5178
1727 1 5180 5179 5181
1728 1 5183 5182 5184
1729 1 5186 5185 5187
1730 1 5189 5188 5190
1731 1 5192 5191 5193
1732 1 5195 5194 5196
1733 1 5198 5197 5199
1734 1 5201 5200 5202
1735 1 5204 5203 5205
1736 1 5207 5206 5208
1737 1 5210 5209 5211
1738 1 5213 5212 5214
1739 1 5216 5215 5217
1740 1 5219 5218 5220
1741 1 5222 5221 5223
1742 1 5225 5224 5226
1743 1 5228 5227 5229
1744 1 5231 5230 5232
1745 1 5234 5233 5235
1746 1 5237 5236 5238
1747 1 5240 5239 5241
1748 1 5243 5242 5244
1749 1 5246 5245 5247
1750 1 5249 5248 5250
1751 1 5252 5251 5253
1752 1 5255 5254 5256
1753 1 5258 5257 5259
1754 1 5261 5260 5262
1755 1 5264 5263 5265
1756 1 5267 5266 5268
1757 1 5270 5269 5271
1758 1 5273 5272 5274
1759 1 5276 5275 5277
1760 1 5279 5278 5280
1761 1 5282 5281 5283
1762 1 5285 5284 5286
1763 1 5288 5287 5289
1764 1 5291 5290 5292
1765 1 5294 5293 5295
1766 1 5297 5296 5298
1767 1 5300 5299 5301
1768 1 5303 5302 5304
1769 1 5306 5305 5307
1770 1 5309 5308 5310
1771 1 5312 5311 5313
1772 1 5315 5314 5316
1773 1 5318 5317 5319
1774 1 5321 5320 5322
1775 1 5324 5323 5325
1776 1 5327 5326 5328
1777 1 5330 5329 5331
1778 1 5333 5332 5334
1779 1 5336 5335 5337
1780 1 5339 5338 5340
1781 1 5342 5341 5343
1782 1 5345 5344 5346
1783 1 5348 5347 5349
1784 1 5351 5350 5352
1785 1 5354 5353 5355
1786 1 5357 5356 5358
1787 1 5360 5359 5361
1788 1 5363 5362 5364
1789 1 5366 5365 5367
1790 1 5369 5368 5370
1791 1 5372 5371 5373
1792 1 5375 5374 5376
1793 1 5378 5377 5379
1794 1 5381 5380 5382
1795 1 5384 5383 5385
1796 1 5387 5386 5388
1797 1 5390 5389 5391
1798 1 5393 5392 5394
1799 1 5396 5395 5397
1800 1 5399 5398 5400
1801 1 5402 5401 5403
1802 1 5405 5404 5406
1803 1 5408 5407 5409
1804 1 5411 5410 5412
1805 1 5414 5413 5415
1806 1 5417 5416 5418
1807 1 5420 5419 5421
1808 1 5423 5422 5424
1809 1 5426 5425 5427
1810 1 5429 5428 5430
1811 1 5432 5431 5433
1812 1 5435 5434 5436
1813 1 5438 5437 5439
1814 1 5441 5440 5442
1815 1 5444 5443 5445
1816 1 5447 5446 5448
1817 1 5450 5449 5451
1818 1 5453 5452 5454
1819 1 5456 5455 5457
1820 1 5459 5458 5460
1821 1 5462 5461 5463
1822 1 5465 5464 5466
1823 1 5468 5467 5469
1824 1 5471 5470 5472
1825 1 5474 5473 5475
1826 1 5477 5476 5478
1827 1 5480 5479 5481
1828 1 5483 5482 5484
1829 1 5486 5485 5487
1830 1 5489 5488 5490
1831 1 5492 5491 5493
1832 1 5495 5494 5496
1833 1 5498 5497 5499
1834 1 5501 5500 5502
1835 1 5504 5503 5505
1836 1 5507 5506 5508
1837 1 5510 5509 5511
1838 1 5513 5512 5514
1839 1 5516 5515 5517
1840 1 5519 5518 5520
1841 1 5522 5521 5523
1842 1 5525 5524 5526
1843 1 5528 5527 5529
1844 1 5531 5530 5532
1845 1 5534 5533 5535
1846 1 5537 5536 5538
1847 1 5540 5539 5541
1848 1 5543 5542 5544
1849 1 5546 5545 5547
1850 1 5549 5548 5550
1851 1 5552 5551 5553
1852 1 5555 5554 5556
1853 1 5558 5557 5559
1854 1 5561 5560 5562
1855 1 5564 5563 5565
1856 1 5567 5566 5568
1857 1 5570 5569 5571
1858 1 5573 5572 5574
1859 1 5576 5575 5577
1860 1 5579 5578 5580
1861 1 5582 5581 5583
1862 1 5585 5584 5586
1863 1 5588 5587 5589
1864 1 5591 5590 5592
1865 1 5594 5593 5595
1866 1 5597 5596 5598
1867 1 5600 5599 5601
1868 1 5603 5602 5604
1869 1 5606 5605 5607
1870 1 5609 5608 5610
1871 1 5612 5611 5613
1872 1 5615 5614 5616
1873 1 5618 5617 5619
1874 1 5621 5620 5622
1875 1 5624 5623 5625
1876 1 5627 5626 5628
1877 1 5630 5629 5631
1878 1 5633 5632 5634
1879 1 5636 5635 5637
1880 1 5639 5638 5640
1881 1 5642 5641 5643
1882 1 5645 5644 5646
1883 1 5648 5647 5649
1884 1 5651 5650 5652
1885 1 5654 5653 5655
1886 1 5657 5656 5658
1887 1 5660 5659 5661
1888 1 5663 5662 5664
1889 1 5666 5665 5667
1890 1 5669 5668 5670
1891 1 5672 5671 5673
1892 1 5675 5674 5676
1893 1 5678 5677 5679
1894 1 5681 5680 5682
1895 1 5684 5683 5685
1896 1 5687 5686 5688
1897 1 5690 5689 5691
1898 1 5693 5692 5694
1899 1 5696 5695 5697
1900 1 5699 5698 5700
1901 1 5702 5701 5703
1902 1 5705 5704 5706
1903 1 5708 5707 5709
1904 1 5711 5710 5712
1905 1 5714 5713 5715
1906 1 5717 5716 5718
1907 1 5720 5719 5721
1908 1 5723 5722 5724
1909 1 5726 5725 5727
1910 1 5729 5728 5730
1911 1 5732 5731 5733
1912 1 5735 5734 5736
1913 1 5738 5737 5739
1914 1 5741 5740 5742
1915 1 5744 5743 5745
1916 1 5747 5746 5748
1917 1 5750 5749 5751
1918 1 5753 5752 5754
1919 1 5756 5755 5757
1920 1 5759 5758 5760
1921 1 5762 5761 5763
1922 1 5765 5764 5766
1923 1 5768 5767 5769
1924 1 5771 5770 5772
1925 1 5774 5773 5775
1926 1 5777 5776 5778
1927 1 5780 5779 5781
1928 1 5783 5782 5784
1929 1 5786 5785 5787
1930 1 5789 5788 5790
1931 1 5792 5791 5793
1932 1 5795 5794 5796
1933 1 5798 5797 5799
1934 1 5801 5800 5802
1935 1 5804 5803 5805
1936 1 5807 5806 5808
1937 1 5810 5809 5811
1938 1 5813 5812 5814
1939 1 5816 5815 5817
1940 1 5819 5818 5820
1941 1 5822 5821 5823
1942 1 5825 5824 5826
1943 1 5828 5827 5829
1944 1 5831 5830 5832
1945 1 5834 5833 5835
1946 1 5837 5836 5838
1947 1 5840 5839 5841
1948 1 5843 5842 5844
1949 1 5846 5845 5847
1950 1 5849 5848 5850
1951 1 5852 5851 5853
1952 1 5855 5854 5856
1953 1 5858 5857 5859
1954 1 5861 5860 5862
1955 1 5864 5863 5865
1956 1 5867 5866 5868
1957 1 5870 5869 5871
1958 1 5873 5872 5874
1959 1 5876 5875 5877
1960 1 5879 5878 5880
1961 1 5882 5881 5883
1962 1 5885 5884 5886
1963 1 5888 5887 5889
1964 1 5891 5890 5892
1965 1 5894 5893 5895
1966 1 5897 5896 5898
1967 1 5900 5899 5901
1968 1 5903 5902 5904
1969 1 5906 5905 5907
1970 1 5909 5908 5910
1971 1 5912 5911 5913
1972 1 5915 5914 5916
1973 1 5918 5917 5919
1974 1 5921 5920 5922
1975 1 5924 5923 5925
1976 1 5927 5926 5928
1977 1 5930 5929 5931
1978 1 5933 5932 5934
1979 1 5936 5935 5937
1980 1 5939 5938 5940
1981 1 5942 5941 5943
1982 1 5945 5944 5946
1983 1 5948 5947 5949
1984 1 5951 5950 5952
1985 1 5954 5953 5955
1986 1 5957 5956 5958
1987 1 5960 5959 5961
1988 1 5963 5962 5964
1989 1 5966 5965 5967
1990 1 5969 5968 5970
1991 1 5972 5971 5973
1992 1 5975 5974 5976
1993 1 5978 5977 5979
1994 1 5981 5980 5982
1995 1 5984 5983 5985
1996 1 5987 5986 5988
1997 1 5990 5989 5991
1998 1 5993 5992 5994
1999 1 5996 5995 5997
2000 1 5999 5998 6000
2001 1 6002 6001 6003
2002 1 6005 6004 6006
2003 1 6008 6007 6009
2004 1 6011 6010 6012
2005 1 6014 6013 6015
2006 1 6017 6016 6018
2007 1 6020 6019 6021
2008 1 6023 6022 6024
2009 1 6026 6025 6027
2010 1 6029 6028 6030
2011 1 6032 6031 6033
2012 1 6035 6034 6036
2013 1 6038 6037 6039
2014 1 6041 6040 6042
2015 1 6044 6043 6045
2016 1 6047 6046 6048
2017 1 6050 6049 6051
2018 1 6053 6052 6054
2019 1 6056 6055 6057
2020 1 6059 6058 6060
2021 1 6062 6061 6063
2022 1 6065 6064 6066
2023 1 6068 6067 6069
2024 1 6071 6070 6072
2025 1 6074 6073 6075
2026 1 6077 6076 6078
2027 1 6080 6079 6081
2028 1 6083 6082 6084
2029 1 6086 6085 6087
2030 1 6089 6088 6090
2031 1 6092 6091 6093
2032 1 6095 6094 6096
2033 1 6098 6097 6099
2034 1 6101 6100 6102
2035 1 6104 6103 6105
2036 1 6107 6106 6108
2037 1 6110 6109 6111
2038 1 6113 6112 6114
2039 1 6116 6115 6117
2040 1 6119 6118 6120
2041 1 6122 6121 6123
2042 1 6125 6124 6126
2043 1 6128 6127 6129
2044 1 6131 6130 6132
2045 1 6134 6133 6135
2046 1 6137 6136 6138
2047 1 6140 6139 6141
2048 1 6143 6142 6144
2049 1 6146 6145 6147
2050 1 6149 6148 6150
2051 1 6152 6151 6153
2052 1 6155 6154 6156
2053 1 6158 6157 6159
2054 1 6161 6160 6162
2055 1 6164 6163 6165
2056 1 6167 6166 6168
2057 1 6170 6169 6171
2058 1 6173 6172 6174
2059 1 6176 6175 6177
2060 1 6179 6178 6180
2061 1 6182 6181 6183
2062 1 6185 6184 6186
2063 1 6188 6187 6189
2064 1 6191 6190 6192
2065 1 6194 6193 6195
2066 1 6197 6196 6198
2067 1 6200 6199 6201
2068 1 6203 6202 6204
2069 1 6206 6205 6207
2070 1 6209 6208 6210
2071 1 6212 6211 6213
2072 1 6215 6214 6216
2073 1 6218 6217 6219
2074 1 6221 6220 6222
2075 1 6224 6223 6225
2076 1 6227 6226 6228
2077 1 6230 6229 6231
2078 1 6233 6232 6234
2079 1 6236 6235 6237
2080 1 6239 6238 6240
2081 1 6242 6241 6243
2082 1 6245 6244 6246
2083 1 6248 6247 6249
2084 1 6251 6250 6252
2085 1 6254 6253 6255
2086 1 6257 6256 6258
2087 1 6260 6259 6261
2088 1 6263 6262 6264
2089 1 6266 6265 6267
2090 1 6269 6268 6270
2091 1 6272 6271 6273
2092 1 6275 6274 6276
2093 1 6278 6277 6279
2094 1 6281 6280 6282
2095 1 6284 6283 6285
2096 1 6287 6286 6288
2097 1 6290 6289 6291
2098 1 6293 6292 6294
2099 1 6296 6295 6297
2100 1 6299 6298 6300
2101 1 6302 6301 6303
2102 1 6305 6304 6306
2103 1 6308 6307 6309
2104 1 6311 6310 6312
2105 1 6314 6313 6315
2106 1 6317 6316 6318
2107 1 6320 6319 6321
2108 1 6323 6322 6324
2109 1 6326 6325 6327
2110 1 6329 6328 6330
2111 1 6332 6331 6333
2112 1 6335 6334 6336
2113 1 6338 6337 6339
2114 1 6341 6340 6342
2115 1 6344 6343 6345
2116 1 6347 6346 6348
2117 1 6350 6349 6351
2118 1 6353 6352 6354
2119 1 6356 6355 6357
2120 1 6359 6358 6360
2121 1 6362 6361 6363
2122 1 6365 6364 6366
2123 1 6368 6367 6369
2124 1 6371 6370 6372
2125 1 6374 6373 6375
2126 1 6377 6376 6378
2127 1 6380 6379 6381
2128 1 6383 6382 6384
2129 1 6386 6385 6387
2130 1 6389 6388 6390
2131 1 6392 6391 6393
2132 1 6395 6394 6396
2133 1 6398 6397 6399
2134 1 6401 6400 6402
2135 1 6404 6403 6405
2136 1 6407 6406 6408
2137 1 6410 6409 6411
2138 1 6413 6412 6414
2139 1 6416 6415 6417
2140 1 6419 6418 6420
2141 1 6422 6421 6423
2142 1 6425 6424 6426
2143 1 6428 6427 6429
2144 1 6431 6430 6432
2145 1 6434 6433 6435
2146 1 6437 6436 6438
2147 1 6440 6439 6441
2148 1 6443 6442 6444
2149 1 6446 6445 6447
2150 1 6449 6448 6450
2151 1 6452 6451 6453
2152 1 6455 6454 6456
2153 1 6458 6457 6459
2154 1 6461 6460 6462
2155 1 6464 6463 6465
2156 1 6467 6466 6468
2157 1 6470 6469 6471
2158 1 6473 6472 6474
2159 1 6476 6475 6477
2160 1 6479 6478 6480
2161 1 6482 6481 6483
2162 1 6485 6484 6486
2163 1 6488 6487 6489
2164 1 6491 6490 6492
2165 1 6494 6493 6495
2166 1 6497 6496 6498
2167 1 6500 6499 6501
2168 1 6503 6502 6504
2169 1 6506 6505 6507
2170 1 6509 6508 6510
2171 1 6512 6511 6513
2172 1 6515 6514 6516
2173 1 6518 6517 6519
2174 1 6521 6520 6522
2175 1 6524 6523 6525
2176 1 6527 6526 6528
2177 1 6530 6529 6531
2178 1 6533 6532 6534
2179 1 6536 6535 6537
2180 1 6539 6538 6540
2181 1 6542 6541 6543
2182 1 6545 6544 6546
2183 1 6548 6547 6549
2184 1 6551 6550 6552
2185 1 6554 6553 6555
2186 1 6557 6556 6558
2187 1 6560 6559 6561
2188 1 6563 6562 6564
2189 1 6566 6565 6567
2190 1 6569 6568 6570
2191 1 6572 6571 6573
2192 1 6575 6574 6576
2193 1 6578 6577 6579
2194 1 6581 6580 6582
2195 1 6584 6583 6585
2196 1 6587 6586 6588
2197 1 6590 6589 6591
2198 1 6593 6592 6594
2199 1 6596 6595 6597
2200 1 6599 6598 6600
2201 1 6602 6601 6603
2202 1 6605 6604 6606
2203 1 6608 6607 6609
2204 1 6611 6610 6612
2205 1 6614 6613 6615
2206 1 6617 6616 6618
2207 1 6620 6619 6621
2208 1 6623 6622 6624
2209 1 6626 6625 6627
2210 1 6629 6628 6630
2211 1 6632 6631 6633
2212 1 6635 6634 6636
2213 1 6638 6637 6639
2214 1 6641 6640 6642
2215 1 6644 6643 6645
2216 1 6647 6646 6648
2217 1 6650 6649 6651
2218 1 6653 6652 6654
2219 1 6656 6655 6657
2220 1 6659 6658 6660
2221 1 6662 6661 6663
2222 1 6665 6664 6666
2223 1 6668 6667 6669
2224 1 6671 6670 6672
2225 1 6674 6673 6675
2226 1 6677 6676 6678
2227 1 6680 6679 6681
2228 1 6683 6682 6684
2229 1 6686 6685 6687
2230 1 6689 6688 6690
2231 1 6692 6691 6693
2232 1 6695 6694 6696
2233 1 6698 6697 6699
2234 1 6701 6700 6702
2235 1 6704 6703 6705
2236 1 6707 6706 6708
2237 1 6710 6709 6711
2238 1 6713 6712 6714
2239 1 6716 6715 6717
2240 1 6719 6718 6720
2241 1 6722 6721 6723
2242 1 6725 6724 6726
2243 1 6728 6727 6729
2244 1 6731 6730 6732
2245 1 6734 6733 6735
2246 1 6737 6736 6738
2247 1 6740 6739 6741
2248 1 6743 6742 6744
2249 1 6746 6745 6747
2250 1 6749 6748 6750
2251 1 6752 6751 6753
2252 1 6755 6754 6756
2253 1 6758 6757 6759
2254 1 6761 6760 6762
2255 1 6764 6763 6765
2256 1 6767 6766 6768
2257 1 6770 6769 6771
2258 1 6773 6772 6774
2259 1 6776 6775 6777
2260 1 6779 6778 6780
2261 1 6782 6781 6783
2262 1 6785 6784 6786
2263 1 6788 6787 6789
2264 1 6791 6790 6792
2265 1 6794 6793 6795
2266 1 6797 6796 6798
2267 1 6800 6799 6801
2268 1 6803 6802 6804
2269 1 6806 6805 6807
2270 1 6809 6808 6810
2271 1 6812 6811 6813
2272 1 6815 6814 6816
2273 1 6818 6817 6819
2274 1 6821 6820 6822
2275 1 6824 6823 6825
2276 1 6827 6826 6828
2277 1 6830 6829 6831
2278 1 6833 6832 6834
2279 1 6836 6835 6837
2280 1 6839 6838 6840
2281 1 6842 6841 6843
2282 1 6845 6844 6846
2283 1 6848 6847 6849
2284 1 6851 6850 6852
2285 1 6854 6853 6855
2286 1 6857 6856 6858
2287 1 6860 6859 6861
2288 1 6863 6862 6864
2289 1 6866 6865 6867
2290 1 6869 6868 6870
2291 1 6872 6871 6873
2292 1 6875 6874 6876
2293 1 6878 6877 6879
2294 1 6881 6880 6882
2295 1 6884 6883 6885
2296 1 6887 6886 6888
2297 1 6890 6889 6891
2298 1 6893 6892 6894
2299 1 6896 6895 6897
2300 1 6899 6898 6900
2301 1 6902 6901 6903
2302 1 6905 6904 6906
2303 1 6908 6907 6909
2304 1 6911 6910 6912
2305 1 6914 6913 6915
2306 1 6917 6916 6918
2307 1 6920 6919 6921
2308 1 6923 6922 6924
2309 1 6926 6925 6927
2310 1 6929 6928 6930
2311 1 6932 6931 6933
2312 1 6935 6934 6936
2313 1 6938 6937 6939
2314 1 6941 6940 6942
2315 1 6944 6943 6945
2316 1 6947 6946 6948
2317 1 6950 6949 6951
2318 1 6953 6952 6954
2319 1 6956 6955 6957
2320 1 6959 6958 6960
2321 1 6962 6961 6963
2322 1 6965 6964 6966
2323 1 6968 6967 6969
2324 1 6971 6970 6972
2325 1 6974 6973 6975
2326 1 6977 6976 6978
2327 1 6980 6979 6981
2328 1 6983 6982 6984
2329 1 6986 6985 6987
2330 1 6989 6988 6990
2331 1 6992 6991 6993
2332 1 6995 6994 6996
2333 1 6998 6997 6999
2334 1 7001 7000 7002
2335 1 7004 7003 7005
2336 1 7007 7006 7008
2337 1 7010 7009 7011
2338 1 7013 7012 7014
2339 1 7016 7015 7017
2340 1 7019 7018 7020
2341 1 7022 7021 7023
2342 1 7025 7024 7026
2343 1 7028 7027 7029
2344 1 7031 7030 7032
2345 1 7034 7033 7035
2346 1 7037 7036 7038
2347 1 7040 7039 7041
2348 1 7043 7042 7044
2349 1 7046 7045 7047
2350 1 7049 7048 7050
2351 1 7052 7051 7053
2352 1 7055 7054 7056
2353 1 7058 7057 7059
2354 1 7061 7060 7062
2355 1 7064 7063 7065
2356 1 7067 7066 7068
2357 1 7070 7069 7071
2358 1 7073 7072 7074
2359 1 7076 7075 7077
2360 1 7079 7078 7080
2361 1 7082 7081 7083
2362 1 7085 7084 7086
2363 1 7088 7087 7089
2364 1 7091 7090 7092
2365 1 7094 7093 7095
2366 1 7097 7096 7098
2367 1 7100 7099 7101
2368 1 7103 7102 7104
2369 1 7106 7105 7107
2370 1 7109 7108 7110
2371 1 7112 7111 7113
2372 1 7115 7114 7116
2373 1 7118 7117 7119
2374 1 7121 7120 7122
2375 1 7124 7123 7125
2376 1 7127 7126 7128
2377 1 7130 7129 7131
2378 1 7133 7132 7134
2379 1 7136 7135 7137
2380 1 7139 7138 7140
2381 1 7142 7141 7143
2382 1 7145 7144 7146
2383 1 7148 7147 7149
2384 1 7151 7150 7152
2385 1 7154 7153 7155
2386 1 7157 7156 7158
2387 1 7160 7159 7161
2388 1 7163 7162 7164
2389 1 7166 7165 7167
2390 1 7169 7168 7170
2391 1 7172 7171 7173
2392 1 7175 7174 7176
2393 1 7178 7177 7179
2394 1 7181 7180 7182
2395 1 7184 7183 7185
2396 1 7187 7186 7188
2397 1 7190 7189 7191
2398 1 7193 7192 7194
2399 1 7196 7195 7197
2400 1 7199 7198 7200
2401 1 7202 7201 7203
2402 1 7205 7204 7206
2403 1 7208 7207 7209
2404 1 7211 7210 7212
2405 1 7214 7213 7215
2406 1 7217 7216 7218
2407 1 7220 7219 7221
2408 1 7223 7222 7224
2409 1 7226 7225 7227
2410 1 7229 7228 7230
2411 1 7232 7231 7233
2412 1 7235 7234 7236
2413 1 7238 7237 7239
2414 1 7241 7240 7242
2415 1 7244 7243 7245
2416 1 7247 7246 7248
2417 1 7250 7249 7251
2418 1 7253 7252 7254
2419 1 7256 7255 7257
2420 1 7259 7258 7260
2421 1 7262 7261 7263
2422 1 7265 7264 7266
2423 1 7268 7267 7269
2424 1 7271 7270 7272
2425 1 7274 7273 7275
2426 1 7277 7276 7278
2427 1 7280 7279 7281
2428 1 7283 7282 7284
2429 1 7286 7285 7287
2430 1 7289 7288 7290
2431 1 7292 7291 7293
2432 1 7295 7294 7296
2433 1 7298 7297 7299
2434 1 7301 7300 7302
2435 1 7304 7303 7305
2436 1 7307 7306 7308
2437 1 7310 7309 7311
2438 1 7313 7312 7314
2439 1 7316 7315 7317
2440 1 7319 7318 7320
2441 1 7322 7321 7323
2442 1 7325 7324 7326
2443 1 7328 7327 7329
2444 1 7331 7330 7332
2445 1 7334 7333 7335
2446 1 7337 7336 7338
2447 1 7340 7339 7341
2448 1 7343 7342 7344
2449 1 7346 7345 7347
2450 1 7349 7348 7350
2451 1 7352 7351 7353
2452 1 7355 7354 7356
2453 1 7358 7357 7359
2454 1 7361 7360 7362
2455 1 7364 7363 7365
2456 1 7367 7366 7368
2457 1 7370 7369 7371
2458 1 7373 7372 7374
2459 1 7376 7375 7377
2460 1 7379 7378 7380
2461 1 7382 7381 7383
2462 1 7385 7384 7386
2463 1 7388 7387 7389
2464 1 7391 7390 7392
2465 1 7394 7393 7395
2466 1 7397 7396 7398
2467 1 7400 7399 7401
2468 1 7403 7402 7404
2469 1 7406 7405 7407
2470 1 7409 7408 7410
2471 1 7412 7411 7413
2472 1 7415 7414 7416
2473 1 7418 7417 7419
2474 1 7421 7420 7422
2475 1 7424 7423 7425
2476 1 7427 7426 7428
2477 1 7430 7429 7431
2478 1 7433 7432 7434
2479 1 7436 7435 7437
2480 1 7439 7438 7440
2481 1 7442 7441 7443
2482 1 7445 7444 7446
2483 1 7448 7447 7449
2484 1 7451 7450 7452
2485 1 7454 7453 7455
2486 1 7457 7456 7458
2487 1 7460 7459 7461
2488 1 7463 7462 7464
2489 1 7466 7465 7467
2490 1 7469 7468 7470
2491 1 7472 7471 7473
2492 1 7475 7474 7476
2493 1 7478 7477 7479
2494 1 7481 7480 7482
2495 1 7484 7483 7485
2496 1 7487 7486 7488
2497 1 7490 7489 7491
2498 1 7493 7492 7494
2499 1 7496 7495 7497
2500 1 7499 7498 7500
2501 1 7502 7501 7503
2502 1 7505 7504 7506
2503 1 7508 7507 7509
2504 1 7511 7510 7512
2505 1 7514 7513 7515
2506 1 7517 7516 7518
2507 1 7520 7519 7521
2508 1 7523 7522 7524
2509 1 7526 7525 7527
2510 1 7529 7528 7530
2511 1 7532 7531 7533
2512 1 7535 7534 7536
2513 1 7538 7537 7539
2514 1 7541 7540 7542
2515 1 7544 7543 7545
2516 1 7547 7546 7548
2517 1 7550 7549 7551
2518 1 7553 7552 7554
2519 1 7556 7555 7557
2520 1 7559 7558 7560
2521 1 7562 7561 7563
2522 1 7565 7564 7566
2523 1 7568 7567 7569
2524 1 7571 7570 7572
2525 1 7574 7573 7575
2526 1 7577 7576 7578
2527 1 7580 7579 7581
2528 1 7583 7582 7584
2529 1 7586 7585 7587
2530 1 7589 7588 7590
2531 1 7592 7591 7593
2532 1 7595 7594 7596
2533 1 7598 7597 7599
2534 1 7601 7600 7602
2535 1 7604 7603 7605
2536 1 7607 7606 7608
2537 1 7610 7609 7611
2538 1 7613 7612 7614
2539 1 7616 7615 7617
2540 1 7619 7618 7620
2541 1 7622 7621 7623
2542 1 7625 7624 7626
2543 1 7628 7627 7629
2544 1 7631 7630 7632
2545 1 7634 7633 7635
2546 1 7637 7636 7638
2547 1 7640 7639 7641
2548 1 7643 7642 7644
2549 1 7646 7645 7647
2550 1 7649 7648 7650
2551 1 7652 7651 7653
2552 1 7655 7654 7656
2553 1 7658 7657 7659
2554 1 7661 7660 7662
2555 1 7664 7663 7665
2556 1 7667 7666 7668
2557 1 7670 7669 7671
2558 1 7673 7672 7674
2559 1 7676 7675 7677
2560 1 7679 7678 7680
2561 1 7682 7681 7683
2562 1 7685 7684 7686
2563 1 7688 7687 7689
2564 1 7691 7690 7692
2565 1 7694 7693 7695
2566 1 7697 7696 7698
2567 1 7700 7699 7701
2568 1 7703 7702 7704
2569 1 7706 7705 7707
2570 1 7709 7708 7710
2571 1 7712 7711 7713
2572 1 7715 7714 7716
2573 1 7718 7717 7719
2574 1 7721 7720 7722
2575 1 7724 7723 7725
2576 1 7727 7726 7728
2577 1 7730 7729 7731
2578 1 7733 7732 7734
2579 1 7736 7735 7737
2580 1 7739 7738 7740
2581 1 7742 7741 7743
2582 1 7745 7744 7746
2583 1 7748 7747 7749
2584 1 7751 7750 7752
2585 1 7754 7753 7755
2586 1 7757 7756 7758
2587 1 7760 7759 7761
2588 1 7763 7762 7764
2589 1 7766 7765 7767
2590 1 7769 7768 7770
2591 1 7772 7771 7773
2592 1 7775 7774 7776
2593 1 7778 7777 7779
2594 1 7781 7780 7782
2595 1 7784 7783 7785
2596 1 7787 7786 7788
2597 1 7790 7789 7791
2598 1 7793 7792 7794
2599 1 7796 7795 7797
2600 1 7799 7798 7800
2601 1 7802 7801 7803
2602 1 7805 7804 7806
2603 1 7808 7807 7809
2604 1 7811 7810 7812
2605 1 7814 7813 7815
2606 1 7817 7816 7818
2607 1 7820 7819 7821
2608 1 7823 7822 7824
2609 1 7826 7825 7827
2610 1 7829 7828 7830
2611 1 7832 7831 7833
2612 1 7835 7834 7836
2613 1 7838 7837 7839
2614 1 7841 7840 7842
2615 1 7844 7843 7845
2616 1 7847 7846 7848
2617 1 7850 7849 7851
2618 1 7853 7852 7854
2619 1 7856 7855 7857
2620 1 7859 7858 7860
2621 1 7862 7861 7863
2622 1 7865 7864 7866
2623 1 7868 7867 7869
2624 1 7871 7870 7872
2625 1 7874 7873 7875
2626 1 7877 7876 7878
2627 1 7880 7879 7881
2628 1 7883 7882 7884
2629 1 7886 7885 7887
2630 1 7889 7888 7890
2631 1 7892 7891 7893
2632 1 7895 7894 7896
2633 1 7898 7897 7899
2634 1 7901 7900 7902
2635 1 7904 7903 7905
2636 1 7907 7906 7908
2637 1 7910 7909 7911
2638 1 7913 7912 7914
2639 1 7916 7915 7917
2640 1 7919 7918 7920
2641 1 7922 7921 7923
2642 1 7925 7924 7926
2643 1 7928 7927 7929
2644 1 7931 7930 7932
2645 1 7934 7933 7935
2646 1 7937 7936 7938
2647 1 7940 7939 7941
2648 1 7943 7942 7944
2649 1 7946 7945 7947
2650 1 7949 7948 7950
2651 1 7952 7951 7953
2652 1 7955 7954 7956
2653 1 7958 7957 7959
2654 1 7961 7960 7962
2655 1 7964 7963 7965
2656 1 7967 7966 7968
2657 1 7970 7969 7971
2658 1 7973 7972 7974
2659 1 7976 7975 7977
2660 1 7979 7978 7980
2661 1 7982 7981 7983
2662 1 7985 7984 7986
2663 1 7988 7987 7989
2664 1 7991 7990 7992
2665 1 7994 7993 7995
2666 1 7997 7996 7998
2667 1 8000 7999 8001
2668 1 8003 8002 8004
2669 1 8006 8005 8007
2670 1 8009 8008 8010
2671 1 8012 8011 8013
2672 1 8015 8014 8016
2673 1 8018 8017 8019
2674 1 8021 8020 8022
2675 1 8024 8023 8025
2676 1 8027 8026 8028
2677 1 8030 8029 8031
2678 1 8033 8032 8034
2679 1 8036 8035 8037
2680 1 8039 8038 8040
2681 1 8042 8041 8043
2682 1 8045 8044 8046
2683 1 8048 8047 8049
2684 1 8051 8050 8052
2685 1 8054 8053 8055
2686 1 8057 8056 8058
2687 1 8060 8059 8061
2688 1 8063 8062 8064
2689 1 8066 8065 8067
2690 1 8069 8068 8070
2691 1 8072 8071 8073
2692 1 8075 8074 8076
2693 1 8078 8077 8079
2694 1 8081 8080 8082
2695 1 8084 8083 8085
2696 1 8087 8086 8088
2697 1 8090 8089 8091
2698 1 8093 8092 8094
2699 1 8096 8095 8097
2700 1 8099 8098 8100
2701 1 8102 8101 8103
2702 1 8105 8104 8106
2703 1 8108 8107 8109
2704 1 8111 8110 8112
2705 1 8114 8113 8115
2706 1 8117 8116 8118
2707 1 8120 8119 8121
2708 1 8123 8122 8124
2709 1 8126 8125 8127
2710 1 8129 8128 8130
2711 1 8132 8131 8133
2712 1 8135 8134 8136
2713 1 8138 8137 8139
2714 1 8141 8140 8142
2715 1 8144 8143 8145
2716 1 8147 8146 8148
2717 1 8150 8149 8151
2718 1 8153 8152 8154
2719 1 8156 8155 8157
2720 1 8159 8158 8160
2721 1 8162 8161 8163
2722 1 8165 8164 8166
2723 1 8168 8167 8169
2724 1 8171 8170 8172
2725 1 8174 8173 8175
2726 1 8177 8176 8178
2727 1 8180 8179 8181
2728 1 8183 8182 8184
2729 1 8186 8185 8187
2730 1 8189 8188 8190
2731 1 8192 8191 8193
2732 1 8195 8194 8196
2733 1 8198 8197 8199
2734 1 8201 8200 8202
2735 1 8204 8203 8205
2736 1 8207 8206 8208
2737 1 8210 8209 8211
2738 1 8213 8212 8214
2739 1 8216 8215 8217
2740 1 8219 8218 8220
2741 1 8222 8221 8223
2742 1 8225 8224 8226
2743 1 8228 8227 8229
2744 1 8231 8230 8232
2745 1 8234 8233 8235
2746 1 8237 8236 8238
2747 1 8240 8239 8241
2748 1 8243 8242 8244
2749 1 8246 8245 8247
2750 1 8249 8248 8250
2751 1 8252 8251 8253
2752 1 8255 8254 8256
2753 1 8258 8257 8259
2754 1 8261 8260 8262
2755 1 8264 8263 8265
2756 1 8267 8266 8268
2757 1 8270 8269 8271
2758 1 8273 8272 8274
2759 1 8276 8275 8277
2760 1 8279 8278 8280
2761 1 8282 8281 8283
2762 1 8285 8284 8286
2763 1 8288 8287 8289
2764 1 8291 8290 8292
2765 1 8294 8293 8295
2766 1 8297 8296 8298
2767 1 8300 8299 8301
2768 1 8303 8302 8304
2769 1 8306 8305 8307
2770 1 8309 8308 8310
2771 1 8312 8311 8313
2772 1 8315 8314 8316
2773 1 8318 8317 8319
2774 1 8321 8320 8322
2775 1 8324 8323 8325
2776 1 8327 8326 8328
2777 1 8330 8329 8331
2778 1 8333 8332 8334
2779 1 8336 8335 8337
2780 1 8339 8338 8340
2781 1 8342 8341 8343
2782 1 8345 8344 8346
2783 1 8348 8347 8349
2784 1 8351 8350 8352
2785 1 8354 8353 8355
2786 1 8357 8356 8358
2787 1 8360 8359 8361
2788 1 8363 8362 8364
2789 1 8366 8365 8367
2790 1 8369 8368 8370
2791 1 8372 8371 8373
2792 1 8375 8374 8376
2793 1 8378 8377 8379
2794 1 8381 8380 8382
2795 1 8384 8383 8385
2796 1 8387 8386 8388
2797 1 8390 8389 8391
2798 1 8393 8392 8394
2799 1 8396 8395 8397
2800 1 8399 8398 8400
2801 1 8402 8401 8403
2802 1 8405 8404 8406
2803 1 8408 8407 8409
2804 1 8411 8410 8412
2805 1 8414 8413 8415
2806 1 8417 8416 8418
2807 1 8420 8419 8421
2808 1 8423 8422 8424
2809 1 8426 8425 8427
2810 1 8429 8428 8430
2811 1 8432 8431 8433
2812 1 8435 8434 8436
2813 1 8438 8437 8439
2814 1 8441 8440 8442
2815 1 8444 8443 8445
2816 1 8447 8446 8448
2817 1 8450 8449 8451
2818 1 8453 8452 8454
2819 1 8456 8455 8457
2820 1 8459 8458 8460
2821 1 8462 8461 8463
2822 1 8465 8464 8466
2823 1 8468 8467 8469
2824 1 8471 8470 8472
2825 1 8474 8473 8475
2826 1 8477 8476 8478
2827 1 8480 8479 8481
2828 1 8483 8482 8484
2829 1 8486 8485 8487
2830 1 8489 8488 8490
2831 1 8492 8491 8493
2832 1 8495 8494 8496
2833 1 8498 8497 8499
2834 1 8501 8500 8502
2835 1 8504 8503 8505
2836 1 8507 8506 8508
2837 1 8510 8509 8511
2838 1 8513 8512 8514
2839 1 8516 8515 8517
2840 1 8519 8518 8520
2841 1 8522 8521 8523
2842 1 8525 8524 8526
2843 1 8528 8527 8529
2844 1 8531 8530 8532
2845 1 8534 8533 8535
2846 1 8537 8536 8538
2847 1 8540 8539 8541
2848 1 8543 8542 8544
2849 1 8546 8545 8547
2850 1 8549 8548 8550
2851 1 8552 8551 8553
2852 1 8555 8554 8556
2853 1 8558 8557 8559
2854 1 8561 8560 8562
2855 1 8564 8563 8565
2856 1 8567 8566 8568
2857 1 8570 8569 8571
2858 1 8573 8572 8574
2859 1 8576 8575 8577
2860 1 8579 8578 8580
2861 1 8582 8581 8583
2862 1 8585 8584 8586
2863 1 8588 8587 8589
2864 1 8591 8590 8592
2865 1 8594 8593 8595
2866 1 8597 8596 8598
2867 1 8600 8599 8601
2868 1 8603 8602 8604
2869 1 8606 8605 8607
2870 1 8609 8608 8610
2871 1 8612 8611 8613
2872 1 8615 8614 8616
2873 1 8618 8617 8619
2874 1 8621 8620 8622
2875 1 8624 8623 8625
2876 1 8627 8626 8628
2877 1 8630 8629 8631
2878 1 8633 8632 8634
2879 1 8636 8635 8637
2880 1 8639 8638 8640
2881 1 8642 8641 8643
2882 1 8645 8644 8646
2883 1 8648 8647 8649
2884 1 8651 8650 8652
2885 1 8654 8653 8655
2886 1 8657 8656 8658
2887 1 8660 8659 8661
2888 1 8663 8662 8664
2889 1 8666 8665 8667
2890 1 8669 8668 8670
2891 1 8672 8671 8673
2892 1 8675 8674 8676
2893 1 8678 8677 8679
2894 1 8681 8680 8682
2895 1 8684 8683 8685
2896 1 8687 8686 8688
2897 1 8690 8689 8691
2898 1 8693 8692 8694
2899 1 8696 8695 8697
2900 1 8699 8698 8700
2901 1 8702 8701 8703
2902 1 8705 8704 8706
2903 1 8708 8707 8709
2904 1 8711 8710 8712
2905 1 8714 8713 8715
2906 1 8717 8716 8718
2907 1 8720 8719 8721
2908 1 8723 8722 8724
2909 1 8726 8725 8727
2910 1 8729 8728 8730
2911 1 8732 8731 8733
2912 1 8735 8734 8736
2913 1 8738 8737 8739
2914 1 8741 8740 8742
2915 1 8744 8743 8745
2916 1 8747 8746 8748
2917 1 8750 8749 8751
2918 1 8753 8752 8754
2919 1 8756 8755 8757
2920 1 8759 8758 8760
2921 1 8762 8761 8763
2922 1 8765 8764 8766
2923 1 8768 8767 8769
2924 1 8771 8770 8772
2925 1 8774 8773 8775
2926 1 8777 8776 8778
2927 1 8780 8779 8781
2928 1 8783 8782 8784
2929 1 8786 8785 8787
2930 1 8789 8788 8790
2931 1 8792 8791 8793
2932 1 8795 8794 8796
2933 1 8798 8797 8799
2934 1 8801 8800 8802
2935 1 8804 8803 8805
2936 1 8807 8806 8808
2937 1 8810 8809 8811
2938 1 8813 8812 8814
2939 1 8816 8815 8817
2940 1 8819 8818 8820
2941 1 8822 8821 8823
2942 1 8825 8824 8826
2943 1 8828 8827 8829
2944 1 8831 8830 8832
2945 2 8834 8833 8835
2946 2 8837 8836 8838
2947 2 8840 8839 8841
2948 2 8843 8842 8844
2949 2 8846 8845 8847
2950 2 8849 8848 8850
2951 2 8852 8851 8853
2952 2 8855 8854 8856
2953 2 8858 8857 8859
2954 2 8861 8860 8862
2955 2 8864 8863 8865
2956 2 8867 8866 8868
2957 2 8870 8869 8871
2958 2 8873 8872 8874
2959 2 8876 8875 8877
2960 2 8879 8878 8880
2961 2 8882 8881 8883
2962 2 8885 8884 8886
2963 2 8888 8887 8889
2964 2 8891 8890 8892
2965 2 8894 8893 8895
2966 2 8897 8896 8898
2967 2 8900 8899 8901
2968 2 8903 8902 8904
2969 2 8906 8905 8907
2970 2 8909 8908 8910
2971 2 8912 8911 8913
2972 2 8915 8914 8916
2973 2 8918 8917 8919
2974 2 8921 8920 8922
2975 2 8924 8923 8925
2976 2 8927 8926 8928
2977 2 8930 8929 8931
2978 2 8933 8932 8934
2979 2 8936 8935 8937
2980 2 8939 8938 8940
2981 2 8942 8941 8943
2982 2 8945 8944 8946
2983 2 8948 8947 8949
2984 2 8951 8950 8952
2985 2 8954 8953 8955
2986 2 8957 8956 8958
2987 2 8960 8959 8961
2988 2 8963 8962 8964
2989 2 8966 8965 8967
2990 2 8969 8968 8970
2991 2 8972 8971 8973
2992 2 8975 8974 8976
2993 2 8978 8977 8979
2994 2 8981 8980 8982
2995 2 8984 8983 8985
2996 2 8987 8986 8988
2997 2 8990 8989 8991
2998 2 8993 8992 8994
2999 2 8996 8995 8997
3000 2 8999 8998 9000
3001 2 9002 9001 9003
3002 2 9005 9004 9006
3003 2 9008 9007 9009
3004 2 9011 9010 9012
3005 2 9014 9013 9015
3006 2 9017 9016 9018
3007 2 9020 9019 9021
3008 2 9023 9022 9024
3009 2 9026 9025 9027
3010 2 9029 9028 9030
3011 2 9032 9031 9033
3012 2 9035 9034 9036
3013 2 9038 9037 9039
3014 2 9041 9040 9042
3015 2 9044 9043 9045
3016 2 9047 9046 9048
3017 2 9050 9049 9051
3018 2 9053 9052 9054
3019 2 9056 9055 9057
3020 2 9059 9058 9060
3021 2 9062 9061 9063
3022 2 9065 9064 9066
3023 2 9068 9067 9069
3024 2 9071 9070 9072
3025 2 9074 9073 9075
3026 2 9077 9076 9078
3027 2 9080 9079 9081
3028 2 9083 9082 9084
3029 2 9086 9085 9087
3030 2 9089 9088 9090
3031 2 9092 9091 9093
3032 2 9095 9094 9096
3033 2 9098 9097 9099
3034 2 9101 9100 9102
3035 2 9104 9103 9105
3036 2 9107 9106 9108
3037 2 9110 9109 9111
3038 2 9113 9112 9114
3039 2 9116 9115 9117
3040 2 9119 9118 9120
3041 2 9122 9121 9123
3042 2 9125 9124 9126
3043 2 9128 9127 9129
3044 2 9131 9130 9132
3045 2 9134 9133 9135
3046 2 9137 9136 9138
3047 2 9140 9139 9141
3048 2 9143 9142 9144
3049 2 9146 9145 9147
3050 2 9149 9148 9150
3051 2 9152 9151 9153
3052 2 9155 9154 9156
3053 2 9158 9157 9159
3054 2 9161 9160 9162
3055 2 9164 9163 9165
3056 2 9167 9166 9168
3057 2 9170 9169 9171
3058 2 9173 9172 9174
3059 2 9176 9175 9177
3060 2 9179 9178 9180
3061 2 9182 9181 9183
3062 2 9185 9184 9186
3063 2 9188 9187 9189
3064 2 9191 9190 9192
3065 2 9194 9193 9195
3066 2 9197 9196 9198
3067 2 9200 9199 9201
3068 2 9203 9202 9204
3069 2 9206 9205 9207
3070 2 9209 9208 9210
3071 2 9212 9211 9213
3072 2 9215 9214 9216
3073 2 9218 9217 9219
3074 2 9221 9220 9222
3075 2 9224 9223 9225
3076 2 9227 9226 9228
3077 2 9230 9229 9231
3078 2 9233 9232 9234
3079 2 9236 9235 9237
3080 2 9239 9238 9240
3081 2 9242 9241 9243
3082 2 9245 9244 9246
3083 2 9248 9247 9249
3084 2 9251 9250 9252
3085 2 9254 9253 9255
3086 2 9257 9256 9258
3087 2 9260 9259 9261
3088 2 9263 9262 9264
3089 2 9266 9265 9267
3090 2 9269 9268 9270
3091 2 9272 9271 9273
3092 2 9275 9274 9276
3093 2 9278 9277 9279
3094 2 9281 9280 9282
3095 2 9284 9283 9285
3096 2 9287 9286 9288
3097 2 9290 9289 9291
3098 2 9293 9292 9294
3099 2 9296 9295 9297
3100 2 9299 9298 9300
3101 2 9302 9301 9303
3102 2 9305 9304 9306
3103 2 9308 9307 9309
3104 2 9311 9310 9312
3105 2 9314 9313 9315
3106 2 9317 9316 9318
3107 2 9320 9319 9321
3108 2 9323 9322 9324
3109 2 9326 9325 9327
3110 2 9329 9328 9330
3111 2 9332 9331 9333
3112 2 9335 9334 9336
3113 2 9338 9337 9339
3114 2 9341 9340 9342
3115 2 9344 9343 9345
3116 2 9347 9346 9348
3117 2 9350 9349 9351
3118 2 9353 9352 9354
3119 2 9356 9355 9357
3120 2 9359 9358 9360
3121 2 9362 9361 9363
3122 2 9365 9364 9366
3123 2 9368 9367 9369
3124 2 9371 9370 9372
3125 2 9374 9373 9375
3126 2 9377 9376 9378
3127 2 9380 9379 9381
3128 2 9383 9382 9384
3129 2 9386 9385 9387
3130 2 9389 9388 9390
3131 2 9392 9391 9393
3132 2 9395 9394 9396
3133 2 9398 9397 9399
3134 2 9401 9400 9402
3135 2 9404 9403 9405
3136 2 9407 9406 9408
3137 2 9410 9409 9411
3138 2 9413 9412 9414
3139 2 9416 9415 9417
3140 2 9419 9418 9420
3141 2 9422 9421 9423
3142 2 9425 9424 9426
3143 2 9428 9427 9429
3144 2 9431 9430 9432
3145 2 9434 9433 9435
3146 2 9437 9436 9438
3147 2 9440 9439 9441
3148 2 9443 9442 9444
3149 2 9446 9445 9447
3150 2 9449 9448 9450
3151 2 9452 9451 9453
3152 2 9455 9454 9456
3153 2 9458 9457 9459
3154 2 9461 9460 9462
3155 2 9464 9463 9465
3156 2 9467 9466 9468
3157 2 9470 9469 9471
3158 2 9473 9472 9474
3159 2 9476 9475 9477
3160 2 9479 9478 9480
3161 2 9482 9481 9483
3162 2 9485 9484 9486
3163 2 9488 9487 9489
3164 2 9491 9490 9492
3165 2 9494 9493 9495
3166 2 9497 9496 9498
3167 2 9500 9499 9501
3168 2 9503 9502 9504
3169 2 9506 9505 9507
3170 2 9509 9508 9510
3171 2 9512 9511 9513
3172 2 9515 9514 9516
3173 2 9518 9517 9519
3174 2 9521 9520 9522
3175 2 9524 9523 9525
3176 2 9527 9526 9528
3177 2 9530 9529 9531
3178 2 9533 9532 9534
3179 2 9536 9535 9537
3180 2 9539 9538 9540
3181 2 9542 9541 9543
3182 2 9545 9544 9546
3183 2 9548 9547 9549
3184 2 9551 9550 9552
3185 2 9554 9553 9555
3186 2 9557 9556 9558
3187 2 9560 9559 9561
3188 2 9563 9562 9564
3189 2 9566 9565 9567
3190 2 9569 9568 9570
3191 2 9572 9571 9573
3192 2 9575 9574 9576
3193 2 9578 9577 9579
3194 2 9581 9580 9582
3195 2 9584 9583 9585
3196 2 9587 9586 9588
3197 2 9590 9589 9591
3198 2 9593 9592 9594
3199 2 9596 9595 9597
3200 2 9599 9598 9600
3201 2 9602 9601 9603
3202 2 9605 9604 9606
3203 2 9608 9607 9609
3204 2 9611 9610 9612
3205 2 9614 9613 9615
3206 2 9617 9616 9618
3207 2 9620 9619 9621
3208 2 9623 9622 9624
3209 2 9626 9625 9627
3210 2 9629 9628 9630
3211 2 9632 9631 9633
3212 2 9635 9634 9636
3213 2 9638 9637 9639
3214 2 9641 9640 9642
3215 2 9644 9643 9645
3216 2 9647 9646 9648
3217 2 9650 9649 9651
3218 2 9653 9652 9654
3219 2 9656 9655 9657
3220 2 9659 9658 9660
3221 2 9662 9661 9663
3222 2 9665 9664 9666
3223 2 9668 9667 9669
3224 2 9671 9670 9672
3225 2 9674 9673 9675
3226 2 9677 9676 9678
3227 2 9680 9679 9681
3228 2 9683 9682 9684
3229 2 9686 9685 9687
3230 2 9689 9688 9690
3231 2 9692 9691 9693
3232 2 9695 9694 9696
3233 2 9698 9697 9699
3234 2 9701 9700 9702
3235 2 9704 9703 9705
3236 2 9707 9706 9708
3237 2 9710 9709 9711
3238 2 9713 9712 9714
3239 2 9716 9715 9717
3240 2 9719 9718 9720
3241 2 9722 9721 9723
3242 2 9725 9724 9726
3243 2 9728 9727 9729
3244 2 9731 9730 9732
3245 2 9734 9733 9735
3246 2 9737 9736 9738
3247 2 9740 9739 9741
3248 2 9743 9742 9744
3249 2 9746 9745 9747
3250 2 9749 9748 9750
3251 2 9752 9751 9753
3252 2 9755 9754 9756
3253 2 9758 9757 9759
3254 2 9761 9760 9762
3255 2 9764 9763 9765
3256 2 9767 9766 9768
3257 2 9770 9769 9771
3258 2 9773 9772 9774
3259 2 9776 9775 9777
3260 2 9779 9778 9780
3261 2 9782 9781 9783
3262 2 9785 9784 9786
3263 2 9788 9787 9789
3264 2 9791 9790 9792
3265 2 9794 9793 9795
3266 2 9797 9796 9798
3267 2 9800 9799 9801
3268 2 9803 9802 9804
3269 2 9806 9805 9807
3270 2 9809 9808 9810
3271 2 9812 9811 9813
3272 2 9815 9814 9816
3273 2 9818 9817 9819
3274 2 9821 9820 9822
3275 2 9824 9823 9825
3276 2 9827 9826 9828
3277 2 9830 9829 9831
3278 2 9833 9832 9834
3279 2 9836 9835 9837
3280 2 9839 9838 9840
3281 2 9842 9841 9843
3282 2 9845 9844 9846
3283 2 9848 9847 9849
3284 2 9851 9850 9852
3285 2 9854 9853 9855
3286 2 9857 9856 9858
3287 2 9860 9859 9861
3288 2 9863 9862 9864
3289 2 9866 9865 9867
3290 2 9869 9868 9870
3291 2 9872 9871 9873
3292 2 9875 9874 9876
3293 2 9878 9877 9879
3294 2 9881 9880 9882
3295 2 9884 9883 9885
3296 2 9887 9886 9888
3297 2 9890 9889 9891
3298 2 9893 9892 9894
3299 2 9896 9895 9897
3300 2 9899 9898 9900
3301 2 9902 9901 9903
3302 2 9905 9904 9906
3303 2 9908 9907 9909
3304 2 9911 9910 9912
3305 2 9914 9913 9915
3306 2 9917 9916 9918
3307 2 9920 9919 9921
3308 2 9923 9922 9924
3309 2 9926 9925 9927
3310 2 9929 9928 9930
3311 2 9932 9931 9933
3312 2 9935 9934 9936
3313 2 9938 9937 9939
3314 2 9941 9940 9942
3315 2 9944 9943 9945
3316 2 9947 9946 9948
3317 2 9950 9949 9951
3318 2 9953 9952 9954
3319 2 9956 9955 9957
3320 2 9959 9958 9960
3321 2 9962 9961 9963
3322 2 9965 9964 9966
3323 2 9968 9967 9969
3324 2 9971 9970 9972
3325 2 9974 9973 9975
3326 2 9977 9976 9978
3327 2 9980 9979 9981
3328 2 9983 9982 9984
3329 2 9986 9985 9987
3330 2 9989 9988 9990
3331 2 9992 9991 9993
3332 2 9995 9994 9996
3333 2 9998 9997 9999
3334 2 10001 10000 10002
3335 2 10004 10003 10005
3336 2 10007 10006 10008
3337 2 10010 10009 10011
3338 2 10013 10012 10014
3339 2 10016 10015 10017
3340 2 10019 10018 10020
3341 2 10022 10021 10023
3342 2 10025 10024 10026
3343 2 10028 10027 10029
3344 2 10031 10030 10032
3345 2 10034 10033 10035
3346 2 10037 10036 10038
3347 2 10040 10039 10041
3348 2 10043 10042 10044
3349 2 10046 10045 10047
3350 2 10049 10048 10050
3351 2 10052 10051 10053
3352 2 10055 10054 10056
3353 2 10058 10057 10059
3354 2 10061 10060 10062
3355 2 10064 10063 10065
3356 2 10067 10066 10068
3357 2 10070 10069 10071
3358 2 10073 10072 10074
3359 2 10076 10075 10077
3360 2 10079 10078 10080
3361 2 10082 10081 10083
3362 2 10085 10084 10086
3363 2 10088 10087 10089
3364 2 10091 10090 10092
3365 2 10094 10093 10095
3366 2 10097 10096 10098
3367 2 10100 10099 10101
3368 2 10103 10102 10104
3369 2 10106 10105 10107
3370 2 10109 10108 10110
3371 2 10112 10111 10113
3372 2 10115 10114 10116
3373 2 10118 10117 10119
3374 2 10121 10120 10122
3375 2 10124 10123 10125
3376 2 10127 10126 10128
3377 2 10130 10129 10131
3378 2 10133 10132 10134
3379 2 10136 10135 10137
3380 2 10139 10138 10140
3381 2 10142 10141 10143
3382 2 10145 10144 10146
3383 2 10148 10147 10149
3384 2 10151 10150 10152
3385 2 10154 10153 10155
3386 2 10157 10156 10158
3387 2 10160 10159 10161
3388 2 10163 10162 10164
3389 2 10166 10165 10167
3390 2 10169 10168 10170
3391 2 10172 10171 10173
3392 2 10175 10174 10176
3393 2 10178 10177 10179
3394 2 10181 10180 10182
3395 2 10184 10183 10185
3396 2 10187 10186 10188
3397 2 10190 10189 10191
3398 2 10193 10192 10194
3399 2 10196 10195 10197
3400 2 10199 10198 10200
3401 2 10202 10201 10203
3402 2 10205 10204 10206
3403 2 10208 10207 10209
3404 2 10211 10210 10212
3405 2 10214 10213 10215
3406 2 10217 10216 10218
3407 2 10220 10219 10221
3408 2 10223 10222 10224
3409 2 10226 10225 10227
3410 2 10229 10228 10230
3411 2 10232 10231 10233
3412 2 10235 10234 10236
3413 2 10238 10237 10239
3414 2 10241 10240 10242
3415 2 10244 10243 10245
3416 2 10247 10246 10248
3417 2 10250 10249 10251
3418 2 10253 10252 10254
3419 2 10256 10255 10257
3420 2 10259 10258 10260
3421 2 10262 10261 10263
3422 2 10265 10264 10266
3423 2 10268 10267 10269
3424 2 10271 10270 10272
3425 2 10274 10273 10275
3426 2 10277 10276 10278
3427 2 10280 10279 10281
3428 2 10283 10282 10284
3429 2 10286 10285 10287
3430 2 10289 10288 10290
3431 2 10292 10291 10293
3432 2 10295 10294 10296
3433 2 10298 10297 10299
3434 2 10301 10300 10302
3435 2 10304 10303 10305
3436 2 10307 10306 10308
3437 2 10310 10309 10311
3438 2 10313 10312 10314
3439 2 10316 10315 10317
3440 2 10319 10318 10320
3441 2 10322 10321 10323
3442 2 10325 10324 10326
3443 2 10328 10327 10329
3444 2 10331 10330 10332
3445 2 10334 10333 10335
3446 2 10337 10336 10338
3447 2 10340 10339 10341
3448 2 10343 10342 10344
3449 2 10346 10345 10347
3450 2 10349 10348 10350
3451 2 10352 10351 10353
3452 2 10355 10354 10356
3453 2 10358 10357 10359
3454 2 10361 10360 10362
3455 2 10364 10363 10365
3456 2 10367 10366 10368

