LAMMPS data file. CGCMM style. atom_style full generated by VMD/TopoTools v1.8 on Tue Aug 05 16:47:27 CDT 2025
 1024 atoms
 0 bonds
 0 angles
 0 dihedrals
 0 impropers
 1 atom types
 0 bond types
 0 angle types
 0 dihedral types
 0 improper types
 -0.026249 38.578361  xlo xhi
 -0.010648 38.593962  ylo yhi
 -0.057892 38.546718  zlo zhi

# Pair Coeffs
#
# 1  1

 Masses

 1 44.008999 # 1

 Atoms # full

1 1 1 0.000000 12.958408 33.276691 30.751055 # 1 UNK
2 1 1 0.000000 32.267609 24.368927 22.323645 # 1 UNK
3 1 1 0.000000 2.233806 37.059410 28.582518 # 1 UNK
4 1 1 0.000000 20.885273 11.973855 14.374126 # 1 UNK
5 1 1 0.000000 5.668951 29.527409 12.112627 # 1 UNK
6 1 1 0.000000 21.290873 29.350227 19.991819 # 1 UNK
7 1 1 0.000000 14.950709 9.461781 17.114254 # 1 UNK
8 1 1 0.000000 5.014331 16.114264 35.114891 # 1 UNK
9 1 1 0.000000 21.609182 26.121336 28.811373 # 1 UNK
10 1 1 0.000000 18.494001 27.347763 0.362528 # 1 UNK
11 1 1 0.000000 13.463018 2.180877 15.839618 # 1 UNK
12 1 1 0.000000 4.811009 0.686544 32.297543 # 1 UNK
13 1 1 0.000000 7.344653 11.493791 13.847255 # 1 UNK
14 1 1 0.000000 7.028709 37.761265 23.720791 # 1 UNK
15 1 1 0.000000 38.401993 16.234310 25.301636 # 1 UNK
16 1 1 0.000000 35.897644 26.101564 22.634274 # 1 UNK
17 1 1 0.000000 13.023818 7.509183 6.039220 # 1 UNK
18 1 1 0.000000 13.989664 32.825756 35.910637 # 1 UNK
19 1 1 0.000000 23.606991 16.854654 28.909100 # 1 UNK
20 1 1 0.000000 5.885538 4.303293 5.090889 # 1 UNK
21 1 1 0.000000 31.826445 31.160837 33.409657 # 1 UNK
22 1 1 0.000000 11.706755 15.898700 37.105026 # 1 UNK
23 1 1 0.000000 28.658926 22.444628 23.840464 # 1 UNK
24 1 1 0.000000 4.407956 33.476944 2.772076 # 1 UNK
25 1 1 0.000000 22.279154 38.474010 10.397527 # 1 UNK
26 1 1 0.000000 7.045959 13.226381 37.135056 # 1 UNK
27 1 1 0.000000 31.987984 34.843636 0.322889 # 1 UNK
28 1 1 0.000000 31.398064 12.009100 0.725616 # 1 UNK
29 1 1 0.000000 21.991764 11.003327 0.801135 # 1 UNK
30 1 1 0.000000 38.161964 3.406570 0.444195 # 1 UNK
31 1 1 0.000000 20.549137 16.908482 33.693134 # 1 UNK
32 1 1 0.000000 7.716287 1.611144 20.762737 # 1 UNK
33 1 1 0.000000 11.176464 36.461716 6.783225 # 1 UNK
34 1 1 0.000000 9.015815 12.133528 5.014899 # 1 UNK
35 1 1 0.000000 16.375053 34.931820 31.393564 # 1 UNK
36 1 1 0.000000 21.860109 19.665682 19.667410 # 1 UNK
37 1 1 0.000000 22.053637 28.918409 32.098499 # 1 UNK
38 1 1 0.000000 36.649910 17.663490 22.279863 # 1 UNK
39 1 1 0.000000 38.334087 26.330391 3.934141 # 1 UNK
40 1 1 0.000000 33.768246 16.026009 6.363149 # 1 UNK
41 1 1 0.000000 16.652327 17.074656 29.768818 # 1 UNK
42 1 1 0.000000 27.087200 35.479218 30.315392 # 1 UNK
43 1 1 0.000000 0.652120 4.545406 16.844891 # 1 UNK
44 1 1 0.000000 1.372784 6.454138 3.238456 # 1 UNK
45 1 1 0.000000 14.531881 7.706352 9.787987 # 1 UNK
46 1 1 0.000000 4.713599 14.443154 1.584678 # 1 UNK
47 1 1 0.000000 15.933764 21.912891 38.477943 # 1 UNK
48 1 1 0.000000 15.413209 38.112938 31.553164 # 1 UNK
49 1 1 0.000000 4.758067 23.124701 13.154419 # 1 UNK
50 1 1 0.000000 14.119328 32.243336 26.954845 # 1 UNK
51 1 1 0.000000 16.622246 24.401054 6.354759 # 1 UNK
52 1 1 0.000000 31.333273 13.636655 30.187872 # 1 UNK
53 1 1 0.000000 17.748156 36.130791 9.562222 # 1 UNK
54 1 1 0.000000 25.384455 24.663736 25.399736 # 1 UNK
55 1 1 0.000000 11.289482 27.542955 29.558392 # 1 UNK
56 1 1 0.000000 29.169163 19.536154 5.722328 # 1 UNK
57 1 1 0.000000 19.889837 22.011755 9.667830 # 1 UNK
58 1 1 0.000000 36.207848 9.569976 26.966610 # 1 UNK
59 1 1 0.000000 25.698463 37.461864 21.829382 # 1 UNK
60 1 1 0.000000 23.260509 7.620452 16.005255 # 1 UNK
61 1 1 0.000000 22.538517 4.636236 7.183470 # 1 UNK
62 1 1 0.000000 21.469919 31.327101 23.201609 # 1 UNK
63 1 1 0.000000 31.926155 31.402618 11.809245 # 1 UNK
64 1 1 0.000000 7.373446 9.782532 25.494328 # 1 UNK
65 1 1 0.000000 3.463240 35.307289 22.861719 # 1 UNK
66 1 1 0.000000 5.737023 27.101355 3.757613 # 1 UNK
67 1 1 0.000000 1.786864 28.872381 15.066300 # 1 UNK
68 1 1 0.000000 34.852581 13.648300 31.694118 # 1 UNK
69 1 1 0.000000 24.520082 6.368497 20.223255 # 1 UNK
70 1 1 0.000000 17.037537 15.305327 23.082500 # 1 UNK
71 1 1 0.000000 34.235291 5.748786 22.241882 # 1 UNK
72 1 1 0.000000 33.458473 4.327062 34.564026 # 1 UNK
73 1 1 0.000000 13.674418 24.160755 16.670092 # 1 UNK
74 1 1 0.000000 35.185101 14.103909 21.565845 # 1 UNK
75 1 1 0.000000 35.854927 12.082655 18.369219 # 1 UNK
76 1 1 0.000000 25.193081 13.140554 16.704872 # 1 UNK
77 1 1 0.000000 27.782873 26.169300 14.075555 # 1 UNK
78 1 1 0.000000 35.222889 15.344228 0.694102 # 1 UNK
79 1 1 0.000000 14.131473 3.026216 7.287253 # 1 UNK
80 1 1 0.000000 34.225254 24.054653 11.504173 # 1 UNK
81 1 1 0.000000 6.954508 21.884081 30.836254 # 1 UNK
82 1 1 0.000000 2.130576 31.161118 25.435909 # 1 UNK
83 1 1 0.000000 20.206989 2.226992 17.712473 # 1 UNK
84 1 1 0.000000 21.575018 27.367399 12.734973 # 1 UNK
85 1 1 0.000000 37.221554 28.895182 1.417169 # 1 UNK
86 1 1 0.000000 22.892500 31.383808 11.837363 # 1 UNK
87 1 1 0.000000 17.161581 21.099028 14.380882 # 1 UNK
88 1 1 0.000000 23.615355 37.294163 0.345678 # 1 UNK
89 1 1 0.000000 15.777118 3.896585 2.206115 # 1 UNK
90 1 1 0.000000 0.321669 7.178099 27.506727 # 1 UNK
91 1 1 0.000000 4.403167 7.785815 28.744900 # 1 UNK
92 1 1 0.000000 20.012945 21.719200 1.611247 # 1 UNK
93 1 1 0.000000 13.261054 33.332718 9.901958 # 1 UNK
94 1 1 0.000000 35.175682 26.761992 6.235608 # 1 UNK
95 1 1 0.000000 11.817209 12.841146 23.096317 # 1 UNK
96 1 1 0.000000 22.306301 5.512891 28.202782 # 1 UNK
97 1 1 0.000000 28.523228 9.888144 2.344154 # 1 UNK
98 1 1 0.000000 4.170425 4.639387 33.535290 # 1 UNK
99 1 1 0.000000 21.152145 35.716774 31.886292 # 1 UNK
100 1 1 0.000000 12.387010 16.245764 24.846546 # 1 UNK
101 1 1 0.000000 19.756609 36.386665 13.352273 # 1 UNK
102 1 1 0.000000 34.388245 33.737938 5.852396 # 1 UNK
103 1 1 0.000000 9.289417 6.460407 37.741489 # 1 UNK
104 1 1 0.000000 2.401337 36.465027 37.674061 # 1 UNK
105 1 1 0.000000 29.164528 2.848730 16.458273 # 1 UNK
106 1 1 0.000000 23.651764 36.143311 13.686218 # 1 UNK
107 1 1 0.000000 2.539046 36.646664 10.701578 # 1 UNK
108 1 1 0.000000 35.891254 34.769779 14.179545 # 1 UNK
109 1 1 0.000000 5.175545 19.423454 12.792400 # 1 UNK
110 1 1 0.000000 32.459682 27.673317 24.216019 # 1 UNK
111 1 1 0.000000 10.669862 23.891891 28.595854 # 1 UNK
112 1 1 0.000000 13.126573 16.471891 3.135664 # 1 UNK
113 1 1 0.000000 21.646292 34.880909 20.745747 # 1 UNK
114 1 1 0.000000 34.913464 6.039837 27.659018 # 1 UNK
115 1 1 0.000000 32.471081 22.250000 2.767652 # 1 UNK
116 1 1 0.000000 16.732319 5.534369 9.265008 # 1 UNK
117 1 1 0.000000 1.965244 18.003454 31.575745 # 1 UNK
118 1 1 0.000000 29.565500 14.510354 21.730690 # 1 UNK
119 1 1 0.000000 7.947186 8.268523 14.806100 # 1 UNK
120 1 1 0.000000 22.844263 19.567627 37.714935 # 1 UNK
121 1 1 0.000000 38.086262 35.598545 31.428890 # 1 UNK
122 1 1 0.000000 32.135071 16.411591 20.298290 # 1 UNK
123 1 1 0.000000 16.921644 21.631672 21.409473 # 1 UNK
124 1 1 0.000000 20.456400 11.382236 11.047146 # 1 UNK
125 1 1 0.000000 34.343925 27.139046 36.832783 # 1 UNK
126 1 1 0.000000 4.748928 28.495235 31.418636 # 1 UNK
127 1 1 0.000000 30.832273 19.355801 36.053902 # 1 UNK
128 1 1 0.000000 16.665308 28.898317 8.082160 # 1 UNK
129 1 1 0.000000 36.232361 7.814473 34.757683 # 1 UNK
130 1 1 0.000000 36.271862 17.750673 17.552546 # 1 UNK
131 1 1 0.000000 10.459700 8.626675 27.582390 # 1 UNK
132 1 1 0.000000 21.127218 15.850463 21.866964 # 1 UNK
133 1 1 0.000000 17.487246 8.602542 26.262735 # 1 UNK
134 1 1 0.000000 0.785531 26.508854 20.681355 # 1 UNK
135 1 1 0.000000 23.831427 13.511991 11.061728 # 1 UNK
136 1 1 0.000000 31.527674 12.246819 13.019564 # 1 UNK
137 1 1 0.000000 14.185000 13.402737 15.441046 # 1 UNK
138 1 1 0.000000 7.109036 37.617916 11.926827 # 1 UNK
139 1 1 0.000000 13.860209 18.700865 28.919064 # 1 UNK
140 1 1 0.000000 28.718864 5.503685 33.416706 # 1 UNK
141 1 1 0.000000 27.930592 13.066909 31.922045 # 1 UNK
142 1 1 0.000000 19.104792 4.950871 25.738672 # 1 UNK
143 1 1 0.000000 33.768211 32.932281 9.868673 # 1 UNK
144 1 1 0.000000 34.764565 24.963110 19.062056 # 1 UNK
145 1 1 0.000000 21.880619 14.273000 3.069085 # 1 UNK
146 1 1 0.000000 30.251019 33.176819 28.321301 # 1 UNK
147 1 1 0.000000 22.472109 38.355808 19.260218 # 1 UNK
148 1 1 0.000000 20.125509 15.445300 37.791256 # 1 UNK
149 1 1 0.000000 17.464718 33.888836 35.549591 # 1 UNK
150 1 1 0.000000 20.216364 26.587608 8.382539 # 1 UNK
151 1 1 0.000000 33.123135 19.738028 26.656536 # 1 UNK
152 1 1 0.000000 1.422665 1.692116 36.748489 # 1 UNK
153 1 1 0.000000 11.432536 21.484192 10.491929 # 1 UNK
154 1 1 0.000000 37.015938 8.851697 0.789151 # 1 UNK
155 1 1 0.000000 19.690208 8.085188 23.239799 # 1 UNK
156 1 1 0.000000 34.173889 35.958389 18.696428 # 1 UNK
157 1 1 0.000000 24.495028 33.414501 23.789873 # 1 UNK
158 1 1 0.000000 35.199474 5.137742 0.051112 # 1 UNK
159 1 1 0.000000 11.635173 5.131197 33.594162 # 1 UNK
160 1 1 0.000000 27.458637 27.824528 26.165737 # 1 UNK
161 1 1 0.000000 6.275000 10.539593 2.961279 # 1 UNK
162 1 1 0.000000 7.710565 16.506754 0.600332 # 1 UNK
163 1 1 0.000000 7.609274 30.805946 30.444809 # 1 UNK
164 1 1 0.000000 25.123291 27.525045 11.617827 # 1 UNK
165 1 1 0.000000 6.813089 36.250446 26.804682 # 1 UNK
166 1 1 0.000000 13.663445 35.109547 0.026248 # 1 UNK
167 1 1 0.000000 11.288482 6.522412 16.363291 # 1 UNK
168 1 1 0.000000 11.672728 4.559582 4.138520 # 1 UNK
169 1 1 0.000000 35.813919 23.400345 36.253510 # 1 UNK
170 1 1 0.000000 25.830109 12.162809 7.774591 # 1 UNK
171 1 1 0.000000 23.992189 20.349218 15.429754 # 1 UNK
172 1 1 0.000000 17.849455 0.392956 16.713646 # 1 UNK
173 1 1 0.000000 29.159246 15.451736 11.503191 # 1 UNK
174 1 1 0.000000 29.186491 12.816509 9.425623 # 1 UNK
175 1 1 0.000000 5.440847 8.474534 11.599646 # 1 UNK
176 1 1 0.000000 34.853718 13.140300 3.386591 # 1 UNK
177 1 1 0.000000 7.843866 2.552917 33.680393 # 1 UNK
178 1 1 0.000000 21.303846 37.820854 22.850901 # 1 UNK
179 1 1 0.000000 21.111855 31.307428 29.077873 # 1 UNK
180 1 1 0.000000 37.014156 19.599373 20.276974 # 1 UNK
181 1 1 0.000000 37.018536 17.041254 13.416318 # 1 UNK
182 1 1 0.000000 15.877146 16.967827 5.812259 # 1 UNK
183 1 1 0.000000 35.330311 30.783155 14.831454 # 1 UNK
184 1 1 0.000000 35.507748 12.531891 10.483539 # 1 UNK
185 1 1 0.000000 10.414952 13.480309 12.630309 # 1 UNK
186 1 1 0.000000 13.222973 14.505745 27.115372 # 1 UNK
187 1 1 0.000000 0.346826 36.614964 23.409391 # 1 UNK
188 1 1 0.000000 14.802700 28.152126 20.445009 # 1 UNK
189 1 1 0.000000 13.976727 10.630900 2.883969 # 1 UNK
190 1 1 0.000000 24.736671 18.976063 31.805355 # 1 UNK
191 1 1 0.000000 25.669882 2.382314 27.264318 # 1 UNK
192 1 1 0.000000 3.862362 3.694256 10.283606 # 1 UNK
193 1 1 0.000000 28.574301 11.055745 24.164171 # 1 UNK
194 1 1 0.000000 30.377254 3.090146 36.443928 # 1 UNK
195 1 1 0.000000 32.727394 26.530918 33.138290 # 1 UNK
196 1 1 0.000000 25.349346 20.108519 12.390000 # 1 UNK
197 1 1 0.000000 26.647554 21.317900 8.102769 # 1 UNK
198 1 1 0.000000 26.361500 8.658770 10.284373 # 1 UNK
199 1 1 0.000000 8.703727 18.378063 12.926264 # 1 UNK
200 1 1 0.000000 10.737982 23.344236 13.530864 # 1 UNK
201 1 1 0.000000 26.931581 32.200275 5.699033 # 1 UNK
202 1 1 0.000000 2.669369 23.770000 4.034148 # 1 UNK
203 1 1 0.000000 25.083345 16.246855 5.344807 # 1 UNK
204 1 1 0.000000 4.024050 0.961437 13.492173 # 1 UNK
205 1 1 0.000000 23.338018 8.319336 36.007454 # 1 UNK
206 1 1 0.000000 36.331161 10.521271 31.653381 # 1 UNK
207 1 1 0.000000 3.192916 27.232119 23.591883 # 1 UNK
208 1 1 0.000000 1.799036 32.317200 0.340682 # 1 UNK
209 1 1 0.000000 18.658382 3.814507 6.094366 # 1 UNK
210 1 1 0.000000 37.003445 19.337973 2.481467 # 1 UNK
211 1 1 0.000000 8.786712 31.278728 20.211672 # 1 UNK
212 1 1 0.000000 20.453400 25.306637 23.755009 # 1 UNK
213 1 1 0.000000 25.938017 32.921883 15.062837 # 1 UNK
214 1 1 0.000000 2.546018 36.712353 33.923836 # 1 UNK
215 1 1 0.000000 10.260849 27.343599 33.273937 # 1 UNK
216 1 1 0.000000 6.552292 8.609473 8.409062 # 1 UNK
217 1 1 0.000000 2.205532 15.477446 11.042109 # 1 UNK
218 1 1 0.000000 27.053154 6.961270 15.757554 # 1 UNK
219 1 1 0.000000 17.383482 8.524589 31.379774 # 1 UNK
220 1 1 0.000000 6.797307 7.540054 18.450399 # 1 UNK
221 1 1 0.000000 20.793146 16.796909 25.663628 # 1 UNK
222 1 1 0.000000 21.498346 34.300671 3.163908 # 1 UNK
223 1 1 0.000000 7.714445 17.053690 24.646900 # 1 UNK
224 1 1 0.000000 22.994926 13.767191 37.179974 # 1 UNK
225 1 1 0.000000 20.420946 8.114457 13.416827 # 1 UNK
226 1 1 0.000000 35.441101 37.246155 9.428860 # 1 UNK
227 1 1 0.000000 29.923908 19.993401 15.896291 # 1 UNK
228 1 1 0.000000 33.120434 8.887926 29.798000 # 1 UNK
229 1 1 0.000000 23.838264 12.522945 22.615801 # 1 UNK
230 1 1 0.000000 27.219854 28.012653 7.436635 # 1 UNK
231 1 1 0.000000 10.910182 13.804282 19.242163 # 1 UNK
232 1 1 0.000000 18.158600 31.223480 18.570982 # 1 UNK
233 1 1 0.000000 22.651537 3.919745 19.095726 # 1 UNK
234 1 1 0.000000 36.239384 5.693718 14.752619 # 1 UNK
235 1 1 0.000000 18.325199 9.449620 16.393745 # 1 UNK
236 1 1 0.000000 18.621191 18.745590 8.476912 # 1 UNK
237 1 1 0.000000 0.196455 33.249611 7.555110 # 1 UNK
238 1 1 0.000000 7.043005 33.174091 13.077272 # 1 UNK
239 1 1 0.000000 4.515625 25.082228 9.993289 # 1 UNK
240 1 1 0.000000 30.615900 24.108480 0.164880 # 1 UNK
241 1 1 0.000000 3.373613 8.667901 0.342746 # 1 UNK
242 1 1 0.000000 33.639626 16.949463 36.023727 # 1 UNK
243 1 1 0.000000 2.988908 22.354855 20.642799 # 1 UNK
244 1 1 0.000000 30.187801 15.845973 14.959427 # 1 UNK
245 1 1 0.000000 20.264072 28.819128 16.354645 # 1 UNK
246 1 1 0.000000 13.986899 6.966867 19.317146 # 1 UNK
247 1 1 0.000000 12.983245 23.239645 21.810499 # 1 UNK
248 1 1 0.000000 10.178254 20.768427 28.538473 # 1 UNK
249 1 1 0.000000 4.294254 4.377714 21.470863 # 1 UNK
250 1 1 0.000000 12.465382 16.591164 13.745373 # 1 UNK
251 1 1 0.000000 4.562202 34.378036 18.631355 # 1 UNK
252 1 1 0.000000 11.316999 11.708364 29.117491 # 1 UNK
253 1 1 0.000000 33.463337 30.816763 0.656740 # 1 UNK
254 1 1 0.000000 0.018206 0.714216 25.914301 # 1 UNK
255 1 1 0.000000 11.394646 25.110518 25.294800 # 1 UNK
256 1 1 0.000000 22.530746 18.109974 2.825373 # 1 UNK
257 1 1 0.000000 31.976646 23.091581 35.441910 # 1 UNK
258 1 1 0.000000 29.854691 14.204990 26.271091 # 1 UNK
259 1 1 0.000000 1.282271 29.917782 32.769482 # 1 UNK
260 1 1 0.000000 32.720516 11.759000 27.928736 # 1 UNK
261 1 1 0.000000 23.733437 37.427292 34.770416 # 1 UNK
262 1 1 0.000000 2.080534 36.812801 19.613899 # 1 UNK
263 1 1 0.000000 12.713109 29.329536 8.747005 # 1 UNK
264 1 1 0.000000 36.480152 16.746281 32.258274 # 1 UNK
265 1 1 0.000000 29.503181 6.301933 37.303944 # 1 UNK
266 1 1 0.000000 22.344463 23.391153 5.028592 # 1 UNK
267 1 1 0.000000 16.651264 23.784845 2.188540 # 1 UNK
268 1 1 0.000000 34.504509 24.360882 26.053127 # 1 UNK
269 1 1 0.000000 3.494005 4.273787 0.146129 # 1 UNK
270 1 1 0.000000 23.524382 27.553837 23.736917 # 1 UNK
271 1 1 0.000000 30.817219 23.187792 19.049318 # 1 UNK
272 1 1 0.000000 9.039416 35.009293 2.952272 # 1 UNK
273 1 1 0.000000 22.460455 12.718472 7.733369 # 1 UNK
274 1 1 0.000000 19.218346 28.204573 24.775173 # 1 UNK
275 1 1 0.000000 21.768482 9.021177 19.955753 # 1 UNK
276 1 1 0.000000 21.699337 1.813913 25.560217 # 1 UNK
277 1 1 0.000000 30.605272 0.312494 12.197164 # 1 UNK
278 1 1 0.000000 3.557017 14.821054 19.802073 # 1 UNK
279 1 1 0.000000 19.578808 24.434273 18.908001 # 1 UNK
280 1 1 0.000000 37.755325 38.538422 35.238583 # 1 UNK
281 1 1 0.000000 24.444273 33.516808 27.349255 # 1 UNK
282 1 1 0.000000 35.912411 29.426664 32.365093 # 1 UNK
283 1 1 0.000000 31.050301 36.471672 2.698709 # 1 UNK
284 1 1 0.000000 2.220896 0.371546 15.876673 # 1 UNK
285 1 1 0.000000 28.858700 15.384090 34.801472 # 1 UNK
286 1 1 0.000000 0.901575 31.880527 20.731909 # 1 UNK
287 1 1 0.000000 4.218768 0.787463 8.741423 # 1 UNK
288 1 1 0.000000 18.383873 38.073326 34.025608 # 1 UNK
289 1 1 0.000000 35.026226 24.020481 32.712048 # 1 UNK
290 1 1 0.000000 14.055737 34.890728 21.096073 # 1 UNK
291 1 1 0.000000 35.700554 8.886305 8.180523 # 1 UNK
292 1 1 0.000000 35.911919 30.392664 11.666009 # 1 UNK
293 1 1 0.000000 12.740246 8.922634 33.618073 # 1 UNK
294 1 1 0.000000 17.369019 37.275146 25.532890 # 1 UNK
295 1 1 0.000000 13.616036 24.154154 3.947689 # 1 UNK
296 1 1 0.000000 33.937798 32.751873 23.240154 # 1 UNK
297 1 1 0.000000 10.550846 23.217100 1.911191 # 1 UNK
298 1 1 0.000000 13.497272 0.445323 37.754028 # 1 UNK
299 1 1 0.000000 5.627159 7.215564 32.175720 # 1 UNK
300 1 1 0.000000 13.187845 8.953907 13.220636 # 1 UNK
301 1 1 0.000000 36.137173 20.295862 13.430336 # 1 UNK
302 1 1 0.000000 26.436947 12.311046 37.055717 # 1 UNK
303 1 1 0.000000 22.661472 25.283846 0.844123 # 1 UNK
304 1 1 0.000000 36.424519 4.744348 25.266317 # 1 UNK
305 1 1 0.000000 24.700918 27.219910 17.793228 # 1 UNK
306 1 1 0.000000 27.315701 3.774415 10.203385 # 1 UNK
307 1 1 0.000000 37.393990 31.685699 4.599037 # 1 UNK
308 1 1 0.000000 23.921518 18.038700 23.487272 # 1 UNK
309 1 1 0.000000 10.443378 36.926952 18.814865 # 1 UNK
310 1 1 0.000000 14.332973 7.584516 2.535990 # 1 UNK
311 1 1 0.000000 30.741428 8.894388 26.006882 # 1 UNK
312 1 1 0.000000 5.325008 15.018791 5.978703 # 1 UNK
313 1 1 0.000000 15.970017 24.399237 19.100481 # 1 UNK
314 1 1 0.000000 8.096476 20.340281 9.926622 # 1 UNK
315 1 1 0.000000 3.400215 21.068945 29.672228 # 1 UNK
316 1 1 0.000000 36.540409 8.291565 12.121200 # 1 UNK
317 1 1 0.000000 33.271698 9.278809 19.889536 # 1 UNK
318 1 1 0.000000 29.113817 19.391655 19.711119 # 1 UNK
319 1 1 0.000000 30.896437 25.777281 28.464373 # 1 UNK
320 1 1 0.000000 37.458199 37.966999 13.008573 # 1 UNK
321 1 1 0.000000 5.506576 30.514881 20.834482 # 1 UNK
322 1 1 0.000000 0.791522 20.818655 5.954847 # 1 UNK
323 1 1 0.000000 18.899673 24.604700 12.039164 # 1 UNK
324 1 1 0.000000 5.072218 29.150791 27.013544 # 1 UNK
325 1 1 0.000000 7.575522 28.336681 9.343658 # 1 UNK
326 1 1 0.000000 5.510024 24.002228 18.897364 # 1 UNK
327 1 1 0.000000 25.990900 16.596399 9.199905 # 1 UNK
328 1 1 0.000000 22.667746 6.717624 0.968892 # 1 UNK
329 1 1 0.000000 27.456728 4.929636 19.202600 # 1 UNK
330 1 1 0.000000 37.974155 20.605646 29.820591 # 1 UNK
331 1 1 0.000000 3.632270 31.750055 31.402927 # 1 UNK
332 1 1 0.000000 28.464418 19.439945 11.550863 # 1 UNK
333 1 1 0.000000 37.606308 13.876682 7.628836 # 1 UNK
334 1 1 0.000000 4.015695 0.733030 25.712299 # 1 UNK
335 1 1 0.000000 13.623382 27.580391 14.186327 # 1 UNK
336 1 1 0.000000 9.978708 36.129208 37.440300 # 1 UNK
337 1 1 0.000000 34.112591 20.487545 37.221001 # 1 UNK
338 1 1 0.000000 31.955164 0.967593 3.846546 # 1 UNK
339 1 1 0.000000 10.541093 35.834763 11.715146 # 1 UNK
340 1 1 0.000000 27.818810 7.560137 27.128326 # 1 UNK
341 1 1 0.000000 17.386509 5.871544 13.693090 # 1 UNK
342 1 1 0.000000 3.655436 20.437273 17.390373 # 1 UNK
343 1 1 0.000000 12.722054 16.784737 32.118710 # 1 UNK
344 1 1 0.000000 14.595245 14.147809 1.923298 # 1 UNK
345 1 1 0.000000 29.109818 9.988466 30.324072 # 1 UNK
346 1 1 0.000000 28.738255 25.666145 18.473200 # 1 UNK
347 1 1 0.000000 23.481544 4.832543 24.707491 # 1 UNK
348 1 1 0.000000 33.232609 18.980919 1.521989 # 1 UNK
349 1 1 0.000000 1.905748 10.808491 2.716336 # 1 UNK
350 1 1 0.000000 34.374409 20.491873 29.449055 # 1 UNK
351 1 1 0.000000 25.286337 34.651199 11.067227 # 1 UNK
352 1 1 0.000000 27.433800 23.476191 29.152428 # 1 UNK
353 1 1 0.000000 8.454959 35.843845 15.650473 # 1 UNK
354 1 1 0.000000 21.026972 1.022896 36.790138 # 1 UNK
355 1 1 0.000000 8.785116 9.780134 31.479473 # 1 UNK
356 1 1 0.000000 25.396683 28.121727 21.087791 # 1 UNK
357 1 1 0.000000 12.565891 1.975469 28.918154 # 1 UNK
358 1 1 0.000000 2.815972 22.238701 26.219601 # 1 UNK
359 1 1 0.000000 29.984200 11.216619 20.442127 # 1 UNK
360 1 1 0.000000 35.268681 23.693817 15.455355 # 1 UNK
361 1 1 0.000000 32.481064 17.085863 13.079845 # 1 UNK
362 1 1 0.000000 29.099136 33.567028 32.551945 # 1 UNK
363 1 1 0.000000 27.774010 12.405945 27.643963 # 1 UNK
364 1 1 0.000000 17.525936 32.663162 9.858889 # 1 UNK
365 1 1 0.000000 24.989519 34.977783 2.419468 # 1 UNK
366 1 1 0.000000 0.140997 2.659612 12.785609 # 1 UNK
367 1 1 0.000000 23.013191 13.954955 26.317410 # 1 UNK
368 1 1 0.000000 29.336508 33.201191 13.810354 # 1 UNK
369 1 1 0.000000 10.771728 9.549254 19.613636 # 1 UNK
370 1 1 0.000000 33.106045 1.049900 38.322456 # 1 UNK
371 1 1 0.000000 20.103563 18.864927 29.313337 # 1 UNK
372 1 1 0.000000 26.059155 24.004227 10.147584 # 1 UNK
373 1 1 0.000000 1.690910 7.755950 18.477646 # 1 UNK
374 1 1 0.000000 16.033701 19.172764 35.191498 # 1 UNK
375 1 1 0.000000 8.512383 14.616618 21.660664 # 1 UNK
376 1 1 0.000000 29.686590 21.238518 31.907255 # 1 UNK
377 1 1 0.000000 19.278427 33.253719 25.555737 # 1 UNK
378 1 1 0.000000 2.774325 35.580318 5.036931 # 1 UNK
379 1 1 0.000000 14.832619 24.327991 12.460337 # 1 UNK
380 1 1 0.000000 6.610178 33.469490 27.710318 # 1 UNK
381 1 1 0.000000 8.182106 1.279655 15.620082 # 1 UNK
382 1 1 0.000000 3.593658 16.423100 23.903591 # 1 UNK
383 1 1 0.000000 15.093218 2.940893 12.712918 # 1 UNK
384 1 1 0.000000 30.789654 5.665185 30.245510 # 1 UNK
385 1 1 0.000000 22.075228 31.861910 0.313171 # 1 UNK
386 1 1 0.000000 34.662338 11.290092 37.068008 # 1 UNK
387 1 1 0.000000 16.122782 17.368963 16.334990 # 1 UNK
388 1 1 0.000000 26.547436 30.542364 24.358765 # 1 UNK
389 1 1 0.000000 20.889900 5.311120 14.868455 # 1 UNK
390 1 1 0.000000 3.020261 6.796761 14.215763 # 1 UNK
391 1 1 0.000000 28.680027 36.870663 18.328535 # 1 UNK
392 1 1 0.000000 25.580526 15.085608 20.821136 # 1 UNK
393 1 1 0.000000 9.078334 23.051264 37.067856 # 1 UNK
394 1 1 0.000000 27.377708 28.136181 37.669674 # 1 UNK
395 1 1 0.000000 16.739208 6.101518 5.156853 # 1 UNK
396 1 1 0.000000 20.624056 0.999538 7.500620 # 1 UNK
397 1 1 0.000000 3.257390 13.490455 37.167763 # 1 UNK
398 1 1 0.000000 20.748810 38.523228 2.512458 # 1 UNK
399 1 1 0.000000 7.358565 17.345953 7.474297 # 1 UNK
400 1 1 0.000000 8.957280 4.353219 18.319244 # 1 UNK
401 1 1 0.000000 30.515137 4.492188 25.778719 # 1 UNK
402 1 1 0.000000 9.331228 15.681872 4.566886 # 1 UNK
403 1 1 0.000000 36.790035 22.977564 8.900244 # 1 UNK
404 1 1 0.000000 21.387846 4.627820 35.513092 # 1 UNK
405 1 1 0.000000 2.605427 34.174583 26.752071 # 1 UNK
406 1 1 0.000000 28.449200 17.998564 26.946909 # 1 UNK
407 1 1 0.000000 3.344860 18.131163 27.104191 # 1 UNK
408 1 1 0.000000 26.106474 25.116117 4.525880 # 1 UNK
409 1 1 0.000000 19.097927 28.056936 30.027527 # 1 UNK
410 1 1 0.000000 31.361927 16.801537 3.562359 # 1 UNK
411 1 1 0.000000 27.920582 1.532306 2.049366 # 1 UNK
412 1 1 0.000000 21.518091 7.692079 4.877459 # 1 UNK
413 1 1 0.000000 31.898481 29.277819 18.065983 # 1 UNK
414 1 1 0.000000 12.624836 25.982655 6.855846 # 1 UNK
415 1 1 0.000000 12.029482 36.232647 29.525654 # 1 UNK
416 1 1 0.000000 35.334908 4.051069 7.462965 # 1 UNK
417 1 1 0.000000 27.421318 31.112473 28.708637 # 1 UNK
418 1 1 0.000000 20.307508 35.814117 17.820164 # 1 UNK
419 1 1 0.000000 17.948891 15.884000 2.387773 # 1 UNK
420 1 1 0.000000 14.698373 36.132591 7.183446 # 1 UNK
421 1 1 0.000000 30.786882 37.255135 31.064074 # 1 UNK
422 1 1 0.000000 30.224945 31.719690 37.424145 # 1 UNK
423 1 1 0.000000 24.141182 2.464916 0.898685 # 1 UNK
424 1 1 0.000000 25.253828 34.260246 18.322182 # 1 UNK
425 1 1 0.000000 9.574555 6.315532 9.575226 # 1 UNK
426 1 1 0.000000 28.966726 32.890125 17.803337 # 1 UNK
427 1 1 0.000000 15.047309 20.668327 18.251682 # 1 UNK
428 1 1 0.000000 14.948982 35.869110 27.400309 # 1 UNK
429 1 1 0.000000 2.575146 22.924265 31.840553 # 1 UNK
430 1 1 0.000000 0.621268 31.246763 29.192818 # 1 UNK
431 1 1 0.000000 28.955563 24.968182 7.660452 # 1 UNK
432 1 1 0.000000 21.978836 34.419098 35.455917 # 1 UNK
433 1 1 0.000000 24.793610 9.928060 31.913391 # 1 UNK
434 1 1 0.000000 15.893310 25.594164 36.505363 # 1 UNK
435 1 1 0.000000 6.948390 11.262028 17.458763 # 1 UNK
436 1 1 0.000000 22.258699 16.110744 17.618982 # 1 UNK
437 1 1 0.000000 9.775782 8.842607 12.001845 # 1 UNK
438 1 1 0.000000 29.694601 29.831600 21.455082 # 1 UNK
439 1 1 0.000000 13.383773 22.082054 36.415344 # 1 UNK
440 1 1 0.000000 0.287039 11.181791 36.532856 # 1 UNK
441 1 1 0.000000 27.122936 21.769228 36.783901 # 1 UNK
442 1 1 0.000000 26.462936 38.342983 9.945112 # 1 UNK
443 1 1 0.000000 0.356395 9.218633 7.518106 # 1 UNK
444 1 1 0.000000 4.072104 31.437128 14.694818 # 1 UNK
445 1 1 0.000000 33.093853 7.690114 37.061546 # 1 UNK
446 1 1 0.000000 19.991528 11.718500 26.689926 # 1 UNK
447 1 1 0.000000 32.295738 35.708500 12.439109 # 1 UNK
448 1 1 0.000000 1.951064 18.748117 12.811654 # 1 UNK
449 1 1 0.000000 15.502555 6.931323 34.389626 # 1 UNK
450 1 1 0.000000 6.830640 11.100400 29.313328 # 1 UNK
451 1 1 0.000000 28.890118 9.683127 36.829128 # 1 UNK
452 1 1 0.000000 35.126381 32.690037 30.079819 # 1 UNK
453 1 1 0.000000 3.193639 7.807068 9.134475 # 1 UNK
454 1 1 0.000000 23.602491 29.253792 27.697891 # 1 UNK
455 1 1 0.000000 16.767200 34.960972 17.003710 # 1 UNK
456 1 1 0.000000 34.798775 20.314728 9.983010 # 1 UNK
457 1 1 0.000000 27.730736 30.363556 12.609009 # 1 UNK
458 1 1 0.000000 10.603272 2.896241 35.868153 # 1 UNK
459 1 1 0.000000 5.032237 24.669083 33.910381 # 1 UNK
460 1 1 0.000000 17.818510 27.985636 13.018154 # 1 UNK
461 1 1 0.000000 8.016966 26.600437 13.603481 # 1 UNK
462 1 1 0.000000 24.277300 11.746218 4.417350 # 1 UNK
463 1 1 0.000000 19.289709 6.414978 18.581409 # 1 UNK
464 1 1 0.000000 3.098519 0.783591 22.028181 # 1 UNK
465 1 1 0.000000 18.261019 38.530273 20.669518 # 1 UNK
466 1 1 0.000000 36.676872 16.944609 4.630017 # 1 UNK
467 1 1 0.000000 7.760354 31.667599 2.757034 # 1 UNK
468 1 1 0.000000 7.793375 7.455293 22.145826 # 1 UNK
469 1 1 0.000000 35.129601 2.056034 11.842555 # 1 UNK
470 1 1 0.000000 19.149454 19.212400 22.389200 # 1 UNK
471 1 1 0.000000 1.165861 1.297231 31.648392 # 1 UNK
472 1 1 0.000000 1.600796 29.378418 18.835899 # 1 UNK
473 1 1 0.000000 8.756455 38.222973 31.917009 # 1 UNK
474 1 1 0.000000 0.380690 14.244781 22.017082 # 1 UNK
475 1 1 0.000000 20.861973 22.164200 29.110582 # 1 UNK
476 1 1 0.000000 8.942872 6.114305 25.898945 # 1 UNK
477 1 1 0.000000 28.148827 29.132736 17.572117 # 1 UNK
478 1 1 0.000000 32.585182 3.734136 15.189337 # 1 UNK
479 1 1 0.000000 23.351480 32.842472 6.878994 # 1 UNK
480 1 1 0.000000 13.431009 7.541181 29.415482 # 1 UNK
481 1 1 0.000000 19.112164 1.991620 13.320691 # 1 UNK
482 1 1 0.000000 37.526943 35.880608 4.808119 # 1 UNK
483 1 1 0.000000 28.089392 36.781982 4.992850 # 1 UNK
484 1 1 0.000000 28.078074 22.287228 14.516391 # 1 UNK
485 1 1 0.000000 4.464319 29.578972 0.398458 # 1 UNK
486 1 1 0.000000 8.755317 32.663227 9.698829 # 1 UNK
487 1 1 0.000000 12.090000 17.683619 6.339263 # 1 UNK
488 1 1 0.000000 10.673547 15.665918 9.310082 # 1 UNK
489 1 1 0.000000 38.084408 8.901006 14.925845 # 1 UNK
490 1 1 0.000000 10.542846 32.869637 23.186918 # 1 UNK
491 1 1 0.000000 33.049728 29.060190 28.036745 # 1 UNK
492 1 1 0.000000 6.090812 29.730318 35.020554 # 1 UNK
493 1 1 0.000000 25.970564 17.067074 36.773010 # 1 UNK
494 1 1 0.000000 13.953536 0.014257 18.749935 # 1 UNK
495 1 1 0.000000 35.691193 15.985008 10.173682 # 1 UNK
496 1 1 0.000000 4.745770 8.126369 24.402018 # 1 UNK
497 1 1 0.000000 21.435581 25.255655 16.068455 # 1 UNK
498 1 1 0.000000 23.048609 9.592347 28.644073 # 1 UNK
499 1 1 0.000000 0.595741 38.113747 7.536399 # 1 UNK
500 1 1 0.000000 36.122337 4.753024 3.829634 # 1 UNK
501 1 1 0.000000 14.631964 31.930182 18.160046 # 1 UNK
502 1 1 0.000000 9.847052 32.317936 33.351635 # 1 UNK
503 1 1 0.000000 32.603909 21.203863 13.127082 # 1 UNK
504 1 1 0.000000 12.021136 7.155877 22.991018 # 1 UNK
505 1 1 0.000000 13.185982 2.903538 19.756710 # 1 UNK
506 1 1 0.000000 34.447056 11.872854 6.333797 # 1 UNK
507 1 1 0.000000 26.021917 1.332920 19.023127 # 1 UNK
508 1 1 0.000000 18.533510 0.437692 29.114109 # 1 UNK
509 1 1 0.000000 18.044481 16.541563 13.398891 # 1 UNK
510 1 1 0.000000 1.158725 8.791013 32.720627 # 1 UNK
511 1 1 0.000000 26.127327 5.574736 36.675919 # 1 UNK
512 1 1 0.000000 6.215772 32.178699 23.335228 # 1 UNK
513 1 1 0.000000 24.889847 2.944489 30.720419 # 1 UNK
514 1 1 0.000000 16.585773 17.892391 19.618244 # 1 UNK
515 1 1 0.000000 24.594664 5.789236 33.447037 # 1 UNK
516 1 1 0.000000 5.555749 13.209528 24.120173 # 1 UNK
517 1 1 0.000000 37.018227 24.566746 27.705772 # 1 UNK
518 1 1 0.000000 6.128253 33.939499 32.802856 # 1 UNK
519 1 1 0.000000 23.191736 24.941036 20.703045 # 1 UNK
520 1 1 0.000000 13.866955 0.417406 9.951707 # 1 UNK
521 1 1 0.000000 25.782791 24.187037 22.366318 # 1 UNK
522 1 1 0.000000 32.605789 13.650555 18.045565 # 1 UNK
523 1 1 0.000000 4.216784 9.764754 5.582047 # 1 UNK
524 1 1 0.000000 15.897581 15.468109 36.129475 # 1 UNK
525 1 1 0.000000 3.771962 24.967773 0.256868 # 1 UNK
526 1 1 0.000000 26.278437 18.404100 2.387169 # 1 UNK
527 1 1 0.000000 38.017990 14.030000 13.469509 # 1 UNK
528 1 1 0.000000 2.041235 4.232373 24.671482 # 1 UNK
529 1 1 0.000000 25.742764 20.109045 4.946922 # 1 UNK
530 1 1 0.000000 35.772636 29.602936 25.199709 # 1 UNK
531 1 1 0.000000 23.991327 37.227207 29.678509 # 1 UNK
532 1 1 0.000000 8.518331 23.992973 21.363308 # 1 UNK
533 1 1 0.000000 33.991600 32.133263 36.268826 # 1 UNK
534 1 1 0.000000 15.818236 27.285873 32.795265 # 1 UNK
535 1 1 0.000000 2.014647 16.887709 2.110534 # 1 UNK
536 1 1 0.000000 36.862972 14.380436 35.395653 # 1 UNK
537 1 1 0.000000 32.492256 7.030044 13.216782 # 1 UNK
538 1 1 0.000000 22.472700 31.557327 16.464819 # 1 UNK
539 1 1 0.000000 35.936825 38.171917 1.906291 # 1 UNK
540 1 1 0.000000 18.987873 19.227491 38.270657 # 1 UNK
541 1 1 0.000000 25.930119 22.314899 31.703363 # 1 UNK
542 1 1 0.000000 32.378983 23.091455 6.707871 # 1 UNK
543 1 1 0.000000 5.860182 19.153990 4.035448 # 1 UNK
544 1 1 0.000000 4.131942 18.655010 7.365512 # 1 UNK
545 1 1 0.000000 6.705700 4.643496 24.820164 # 1 UNK
546 1 1 0.000000 27.063581 37.041874 26.704773 # 1 UNK
547 1 1 0.000000 9.396925 2.228484 11.308873 # 1 UNK
548 1 1 0.000000 7.792971 13.041382 33.715771 # 1 UNK
549 1 1 0.000000 30.006882 23.874008 11.104155 # 1 UNK
550 1 1 0.000000 12.250636 30.698055 21.153973 # 1 UNK
551 1 1 0.000000 1.278498 7.057260 22.747854 # 1 UNK
552 1 1 0.000000 21.537800 11.202146 34.936993 # 1 UNK
553 1 1 0.000000 25.121191 15.193892 1.218848 # 1 UNK
554 1 1 0.000000 23.418545 28.350090 35.984299 # 1 UNK
555 1 1 0.000000 19.514418 25.171719 32.558819 # 1 UNK
556 1 1 0.000000 24.850664 28.739500 14.647727 # 1 UNK
557 1 1 0.000000 16.487164 10.160682 13.574373 # 1 UNK
558 1 1 0.000000 8.720057 9.864018 35.067493 # 1 UNK
559 1 1 0.000000 14.358509 27.572800 23.900219 # 1 UNK
560 1 1 0.000000 22.820610 24.596090 32.113148 # 1 UNK
561 1 1 0.000000 33.462627 27.668291 13.215100 # 1 UNK
562 1 1 0.000000 17.270792 25.119972 26.802256 # 1 UNK
563 1 1 0.000000 7.827104 21.699373 15.235236 # 1 UNK
564 1 1 0.000000 12.168718 28.804136 37.667107 # 1 UNK
565 1 1 0.000000 30.209536 30.913628 25.095856 # 1 UNK
566 1 1 0.000000 27.918646 1.263364 22.506172 # 1 UNK
567 1 1 0.000000 25.480227 19.674610 25.996908 # 1 UNK
568 1 1 0.000000 18.335272 19.489527 4.823925 # 1 UNK
569 1 1 0.000000 15.454663 29.091373 29.064554 # 1 UNK
570 1 1 0.000000 25.319683 24.489809 15.796946 # 1 UNK
571 1 1 0.000000 15.576863 14.549399 11.930500 # 1 UNK
572 1 1 0.000000 36.287636 33.861771 18.229881 # 1 UNK
573 1 1 0.000000 24.344154 2.119919 22.400053 # 1 UNK
574 1 1 0.000000 0.555122 37.054909 1.603508 # 1 UNK
575 1 1 0.000000 4.622518 0.724710 3.526189 # 1 UNK
576 1 1 0.000000 13.097337 29.057255 26.160145 # 1 UNK
577 1 1 0.000000 22.022499 1.798501 4.642825 # 1 UNK
578 1 1 0.000000 11.737591 26.454872 11.810081 # 1 UNK
579 1 1 0.000000 17.117628 9.329723 20.106155 # 1 UNK
580 1 1 0.000000 31.551563 4.794980 0.689280 # 1 UNK
581 1 1 0.000000 17.426245 1.512323 9.880719 # 1 UNK
582 1 1 0.000000 17.799000 31.896299 0.646359 # 1 UNK
583 1 1 0.000000 36.781616 33.470039 1.656132 # 1 UNK
584 1 1 0.000000 30.818317 21.045227 25.270592 # 1 UNK
585 1 1 0.000000 32.630272 1.578105 24.200356 # 1 UNK
586 1 1 0.000000 12.136364 18.079737 20.952246 # 1 UNK
587 1 1 0.000000 11.609773 5.678727 12.514309 # 1 UNK
588 1 1 0.000000 38.492630 25.220419 17.672935 # 1 UNK
589 1 1 0.000000 25.812119 17.056463 14.385137 # 1 UNK
590 1 1 0.000000 10.372625 30.580328 13.102937 # 1 UNK
591 1 1 0.000000 10.217238 14.142891 30.980200 # 1 UNK
592 1 1 0.000000 14.889091 31.861319 6.353417 # 1 UNK
593 1 1 0.000000 0.540893 18.224554 8.440765 # 1 UNK
594 1 1 0.000000 1.393332 23.196108 15.522400 # 1 UNK
595 1 1 0.000000 15.238782 38.477993 22.458746 # 1 UNK
596 1 1 0.000000 0.812620 35.289200 15.681491 # 1 UNK
597 1 1 0.000000 13.809437 19.654219 24.511436 # 1 UNK
598 1 1 0.000000 35.997219 34.902134 22.396418 # 1 UNK
599 1 1 0.000000 15.290218 4.055475 31.201628 # 1 UNK
600 1 1 0.000000 6.707589 3.676462 1.001893 # 1 UNK
601 1 1 0.000000 9.284443 18.643745 31.005863 # 1 UNK
602 1 1 0.000000 15.091736 3.312914 27.049582 # 1 UNK
603 1 1 0.000000 28.391182 14.123000 1.757553 # 1 UNK
604 1 1 0.000000 12.040918 12.971272 34.766747 # 1 UNK
605 1 1 0.000000 17.648273 36.502209 1.985834 # 1 UNK
606 1 1 0.000000 22.878010 21.184427 33.956352 # 1 UNK
607 1 1 0.000000 27.072592 31.241064 9.209800 # 1 UNK
608 1 1 0.000000 16.062983 13.026518 25.143427 # 1 UNK
609 1 1 0.000000 14.530527 21.268600 31.192656 # 1 UNK
610 1 1 0.000000 17.957436 4.572064 29.409763 # 1 UNK
611 1 1 0.000000 17.647726 4.806997 37.251637 # 1 UNK
612 1 1 0.000000 10.541656 10.680691 2.507929 # 1 UNK
613 1 1 0.000000 31.006056 17.645773 8.903589 # 1 UNK
614 1 1 0.000000 33.399380 32.257881 26.230164 # 1 UNK
615 1 1 0.000000 4.081838 11.329272 33.420628 # 1 UNK
616 1 1 0.000000 6.483894 20.174345 26.939400 # 1 UNK
617 1 1 0.000000 12.588855 33.635464 4.783951 # 1 UNK
618 1 1 0.000000 2.301987 14.024827 28.109364 # 1 UNK
619 1 1 0.000000 30.953609 28.765636 7.362920 # 1 UNK
620 1 1 0.000000 26.418091 31.978319 37.861202 # 1 UNK
621 1 1 0.000000 14.766090 18.254026 38.357418 # 1 UNK
622 1 1 0.000000 29.618345 8.386221 12.776746 # 1 UNK
623 1 1 0.000000 11.697063 32.600216 0.292831 # 1 UNK
624 1 1 0.000000 38.533905 26.868219 33.750210 # 1 UNK
625 1 1 0.000000 25.702991 26.635263 29.275045 # 1 UNK
626 1 1 0.000000 15.570582 11.208110 33.732925 # 1 UNK
627 1 1 0.000000 4.621409 17.366390 17.492126 # 1 UNK
628 1 1 0.000000 33.839046 10.488519 15.619254 # 1 UNK
629 1 1 0.000000 21.766172 36.815800 6.133659 # 1 UNK
630 1 1 0.000000 11.778927 5.480079 26.693491 # 1 UNK
631 1 1 0.000000 11.306273 11.225791 15.637691 # 1 UNK
632 1 1 0.000000 6.636595 27.797510 19.187737 # 1 UNK
633 1 1 0.000000 17.905510 8.455690 35.712391 # 1 UNK
634 1 1 0.000000 1.145497 14.458427 4.499736 # 1 UNK
635 1 1 0.000000 8.136006 6.838272 2.697025 # 1 UNK
636 1 1 0.000000 9.032430 30.411509 26.243401 # 1 UNK
637 1 1 0.000000 0.384369 32.325947 16.677237 # 1 UNK
638 1 1 0.000000 17.506018 11.811810 1.675210 # 1 UNK
639 1 1 0.000000 30.635918 2.130107 32.131218 # 1 UNK
640 1 1 0.000000 38.108212 3.004321 21.211565 # 1 UNK
641 1 1 0.000000 8.542052 26.056246 26.949535 # 1 UNK
642 1 1 0.000000 10.266685 29.125954 16.416264 # 1 UNK
643 1 1 0.000000 23.349590 28.007418 6.314641 # 1 UNK
644 1 1 0.000000 20.117310 30.681736 10.819098 # 1 UNK
645 1 1 0.000000 24.269310 15.359963 33.007065 # 1 UNK
646 1 1 0.000000 14.355908 2.549754 35.248146 # 1 UNK
647 1 1 0.000000 28.907719 18.068045 22.912127 # 1 UNK
648 1 1 0.000000 2.428552 10.564285 25.616653 # 1 UNK
649 1 1 0.000000 6.185504 21.222809 23.725300 # 1 UNK
650 1 1 0.000000 24.206373 25.152599 35.748989 # 1 UNK
651 1 1 0.000000 24.187092 32.467117 31.330601 # 1 UNK
652 1 1 0.000000 29.123074 0.930852 26.397318 # 1 UNK
653 1 1 0.000000 11.133018 37.605057 22.546719 # 1 UNK
654 1 1 0.000000 17.307919 14.324291 19.876646 # 1 UNK
655 1 1 0.000000 14.912700 14.700300 8.247802 # 1 UNK
656 1 1 0.000000 8.292234 17.756636 20.449755 # 1 UNK
657 1 1 0.000000 17.841400 34.909210 21.643600 # 1 UNK
658 1 1 0.000000 17.129982 24.076727 15.354937 # 1 UNK
659 1 1 0.000000 31.704655 38.285702 21.666935 # 1 UNK
660 1 1 0.000000 5.147167 33.766891 38.217274 # 1 UNK
661 1 1 0.000000 2.577584 26.540190 12.819236 # 1 UNK
662 1 1 0.000000 7.582383 19.747000 18.275808 # 1 UNK
663 1 1 0.000000 19.585255 17.539618 17.357655 # 1 UNK
664 1 1 0.000000 28.742327 20.419191 28.858446 # 1 UNK
665 1 1 0.000000 22.374044 1.468194 32.649509 # 1 UNK
666 1 1 0.000000 1.158950 16.456146 15.720464 # 1 UNK
667 1 1 0.000000 34.460552 20.956573 23.604063 # 1 UNK
668 1 1 0.000000 8.189114 27.056337 36.861736 # 1 UNK
669 1 1 0.000000 29.639391 23.803183 3.749511 # 1 UNK
670 1 1 0.000000 35.815174 1.175338 32.077236 # 1 UNK
671 1 1 0.000000 8.468808 16.815937 34.840290 # 1 UNK
672 1 1 0.000000 12.073654 1.056863 32.600555 # 1 UNK
673 1 1 0.000000 11.436682 2.059649 7.638944 # 1 UNK
674 1 1 0.000000 8.574384 33.949455 6.399714 # 1 UNK
675 1 1 0.000000 27.756119 37.153500 13.921509 # 1 UNK
676 1 1 0.000000 32.157082 16.552246 24.479555 # 1 UNK
677 1 1 0.000000 8.866051 30.950754 36.974617 # 1 UNK
678 1 1 0.000000 9.075734 6.971916 6.093936 # 1 UNK
679 1 1 0.000000 27.837328 18.871527 34.659374 # 1 UNK
680 1 1 0.000000 16.890390 8.701722 6.809762 # 1 UNK
681 1 1 0.000000 14.532082 13.336482 30.283327 # 1 UNK
682 1 1 0.000000 1.296721 23.421045 35.938717 # 1 UNK
683 1 1 0.000000 33.965927 20.244072 33.728275 # 1 UNK
684 1 1 0.000000 12.281700 26.341354 18.698799 # 1 UNK
685 1 1 0.000000 3.450869 8.741601 35.371292 # 1 UNK
686 1 1 0.000000 34.002438 8.202095 4.392465 # 1 UNK
687 1 1 0.000000 29.331791 1.965712 7.095523 # 1 UNK
688 1 1 0.000000 5.702225 10.305442 20.899691 # 1 UNK
689 1 1 0.000000 32.662189 10.223272 9.664236 # 1 UNK
690 1 1 0.000000 5.459383 0.484990 28.735928 # 1 UNK
691 1 1 0.000000 20.750727 28.309818 2.347197 # 1 UNK
692 1 1 0.000000 24.216600 4.083462 14.826400 # 1 UNK
693 1 1 0.000000 7.408903 31.826336 17.400827 # 1 UNK
694 1 1 0.000000 8.756450 34.954266 30.831955 # 1 UNK
695 1 1 0.000000 2.198181 29.168627 4.135722 # 1 UNK
696 1 1 0.000000 4.237113 28.182100 7.476346 # 1 UNK
697 1 1 0.000000 19.979763 26.739845 35.384380 # 1 UNK
698 1 1 0.000000 19.609472 35.240128 28.440073 # 1 UNK
699 1 1 0.000000 31.252399 25.017128 15.209218 # 1 UNK
700 1 1 0.000000 15.208882 29.787928 11.486355 # 1 UNK
701 1 1 0.000000 7.881174 15.029518 16.019846 # 1 UNK
702 1 1 0.000000 23.286617 32.025990 34.290344 # 1 UNK
703 1 1 0.000000 30.737764 32.882702 7.204852 # 1 UNK
704 1 1 0.000000 27.726618 0.069202 31.673119 # 1 UNK
705 1 1 0.000000 30.732153 9.811758 6.355606 # 1 UNK
706 1 1 0.000000 19.661446 29.695982 5.833389 # 1 UNK
707 1 1 0.000000 19.811146 7.822823 8.855181 # 1 UNK
708 1 1 0.000000 8.025163 21.569845 6.216401 # 1 UNK
709 1 1 0.000000 20.210974 12.512827 31.637564 # 1 UNK
710 1 1 0.000000 30.171427 37.539635 35.451454 # 1 UNK
711 1 1 0.000000 5.357208 24.467173 27.747608 # 1 UNK
712 1 1 0.000000 36.935093 26.796391 14.834536 # 1 UNK
713 1 1 0.000000 5.622437 18.195854 30.603083 # 1 UNK
714 1 1 0.000000 2.857515 27.861963 35.613464 # 1 UNK
715 1 1 0.000000 3.436024 10.947291 14.417618 # 1 UNK
716 1 1 0.000000 30.435610 34.095844 35.281036 # 1 UNK
717 1 1 0.000000 35.370716 4.015576 18.883928 # 1 UNK
718 1 1 0.000000 20.746317 19.722519 12.532836 # 1 UNK
719 1 1 0.000000 3.145808 21.342609 10.359957 # 1 UNK
720 1 1 0.000000 29.475836 25.919455 31.862938 # 1 UNK
721 1 1 0.000000 29.226564 29.205437 4.116035 # 1 UNK
722 1 1 0.000000 18.750290 12.226582 36.786510 # 1 UNK
723 1 1 0.000000 37.105064 21.689554 25.903782 # 1 UNK
724 1 1 0.000000 9.053669 3.029077 28.357254 # 1 UNK
725 1 1 0.000000 34.396591 8.685273 24.621582 # 1 UNK
726 1 1 0.000000 37.841919 12.775764 0.941820 # 1 UNK
727 1 1 0.000000 8.468309 13.522891 26.804537 # 1 UNK
728 1 1 0.000000 8.683455 19.945545 38.406761 # 1 UNK
729 1 1 0.000000 23.863892 28.712799 9.048779 # 1 UNK
730 1 1 0.000000 35.074383 16.406109 26.562836 # 1 UNK
731 1 1 0.000000 8.284025 24.190317 10.577073 # 1 UNK
732 1 1 0.000000 26.950119 22.732874 18.573246 # 1 UNK
733 1 1 0.000000 14.643190 5.801096 15.574018 # 1 UNK
734 1 1 0.000000 13.660327 12.994781 19.600927 # 1 UNK
735 1 1 0.000000 19.923618 33.958138 6.510749 # 1 UNK
736 1 1 0.000000 25.820236 11.701528 19.347845 # 1 UNK
737 1 1 0.000000 11.979937 28.850527 4.207733 # 1 UNK
738 1 1 0.000000 6.758291 35.430992 35.892029 # 1 UNK
739 1 1 0.000000 26.191681 15.087182 24.370945 # 1 UNK
740 1 1 0.000000 23.337391 2.860818 10.951391 # 1 UNK
741 1 1 0.000000 7.235618 28.153564 23.665327 # 1 UNK
742 1 1 0.000000 19.864674 12.096218 22.272282 # 1 UNK
743 1 1 0.000000 13.057900 12.043046 6.757968 # 1 UNK
744 1 1 0.000000 34.474510 25.172363 2.489097 # 1 UNK
745 1 1 0.000000 22.315109 18.004164 7.837653 # 1 UNK
746 1 1 0.000000 17.941063 14.805191 32.712410 # 1 UNK
747 1 1 0.000000 5.504809 0.816614 37.139591 # 1 UNK
748 1 1 0.000000 1.343542 24.471945 7.611871 # 1 UNK
749 1 1 0.000000 25.453356 1.746375 7.571964 # 1 UNK
750 1 1 0.000000 14.291254 36.897892 16.049391 # 1 UNK
751 1 1 0.000000 14.015173 37.125328 35.078999 # 1 UNK
752 1 1 0.000000 35.549889 37.264565 37.221638 # 1 UNK
753 1 1 0.000000 9.086795 24.782427 16.976719 # 1 UNK
754 1 1 0.000000 11.468391 21.101755 18.173927 # 1 UNK
755 1 1 0.000000 1.014436 26.489973 29.993519 # 1 UNK
756 1 1 0.000000 32.435982 4.237684 4.878417 # 1 UNK
757 1 1 0.000000 9.945721 26.133318 4.943990 # 1 UNK
758 1 1 0.000000 35.870182 0.220686 22.134708 # 1 UNK
759 1 1 0.000000 0.708396 29.466164 7.980546 # 1 UNK
760 1 1 0.000000 11.236628 9.897740 37.188244 # 1 UNK
761 1 1 0.000000 13.447873 21.275618 6.935340 # 1 UNK
762 1 1 0.000000 37.315479 1.217905 17.683764 # 1 UNK
763 1 1 0.000000 30.677256 8.179909 22.519646 # 1 UNK
764 1 1 0.000000 19.166119 21.155655 25.622992 # 1 UNK
765 1 1 0.000000 29.352345 27.622292 11.837427 # 1 UNK
766 1 1 0.000000 34.614582 5.025414 31.892956 # 1 UNK
767 1 1 0.000000 21.905836 0.965829 28.938210 # 1 UNK
768 1 1 0.000000 0.028788 2.522499 8.857383 # 1 UNK
769 1 1 0.000000 17.724537 13.069582 16.570972 # 1 UNK
770 1 1 0.000000 0.921855 5.838692 30.794846 # 1 UNK
771 1 1 0.000000 24.670956 28.535046 1.041675 # 1 UNK
772 1 1 0.000000 11.247746 22.211737 33.503365 # 1 UNK
773 1 1 0.000000 23.095991 23.003145 12.362718 # 1 UNK
774 1 1 0.000000 34.542145 30.438354 7.252141 # 1 UNK
775 1 1 0.000000 32.234436 2.289016 29.043463 # 1 UNK
776 1 1 0.000000 15.719727 21.200754 9.288159 # 1 UNK
777 1 1 0.000000 37.929974 21.353537 17.074945 # 1 UNK
778 1 1 0.000000 33.248554 19.514956 5.498722 # 1 UNK
779 1 1 0.000000 5.980119 28.349308 15.606445 # 1 UNK
780 1 1 0.000000 2.834363 2.262756 19.128963 # 1 UNK
781 1 1 0.000000 14.436673 3.609428 23.505072 # 1 UNK
782 1 1 0.000000 16.685299 3.831643 17.520618 # 1 UNK
783 1 1 0.000000 16.843946 27.610537 3.565025 # 1 UNK
784 1 1 0.000000 24.140009 22.017546 1.965117 # 1 UNK
785 1 1 0.000000 1.026082 1.657263 1.922907 # 1 UNK
786 1 1 0.000000 21.736372 0.789984 14.971210 # 1 UNK
787 1 1 0.000000 6.339833 5.662541 35.937599 # 1 UNK
788 1 1 0.000000 24.463118 31.772400 20.213554 # 1 UNK
789 1 1 0.000000 33.104855 1.908601 8.715164 # 1 UNK
790 1 1 0.000000 26.299690 34.961010 35.854900 # 1 UNK
791 1 1 0.000000 32.349873 23.629654 30.137617 # 1 UNK
792 1 1 0.000000 2.393792 19.812662 3.324466 # 1 UNK
793 1 1 0.000000 10.352951 2.423472 24.335419 # 1 UNK
794 1 1 0.000000 36.804947 33.654991 26.399864 # 1 UNK
795 1 1 0.000000 25.715445 27.819508 32.959816 # 1 UNK
796 1 1 0.000000 6.223179 25.142536 23.047836 # 1 UNK
797 1 1 0.000000 29.972509 10.951218 33.863964 # 1 UNK
798 1 1 0.000000 36.240055 1.390712 4.754010 # 1 UNK
799 1 1 0.000000 17.517946 31.687809 31.261818 # 1 UNK
800 1 1 0.000000 26.296963 8.695665 5.462385 # 1 UNK
801 1 1 0.000000 10.537436 14.011954 1.299742 # 1 UNK
802 1 1 0.000000 25.389355 6.150055 3.501900 # 1 UNK
803 1 1 0.000000 33.942272 7.071115 17.708164 # 1 UNK
804 1 1 0.000000 26.999300 25.192200 0.939724 # 1 UNK
805 1 1 0.000000 14.940573 31.549164 2.700084 # 1 UNK
806 1 1 0.000000 3.610316 4.211019 29.085581 # 1 UNK
807 1 1 0.000000 7.849589 37.559235 8.727466 # 1 UNK
808 1 1 0.000000 27.764446 5.731183 6.676659 # 1 UNK
809 1 1 0.000000 34.864338 0.859721 15.754146 # 1 UNK
810 1 1 0.000000 15.957791 10.617599 28.818281 # 1 UNK
811 1 1 0.000000 23.141300 30.983791 3.540929 # 1 UNK
812 1 1 0.000000 11.532318 25.755854 37.137173 # 1 UNK
813 1 1 0.000000 35.826218 30.134247 19.390209 # 1 UNK
814 1 1 0.000000 13.520591 38.452061 3.499357 # 1 UNK
815 1 1 0.000000 26.819363 4.536699 24.091265 # 1 UNK
816 1 1 0.000000 37.656044 5.469203 10.931727 # 1 UNK
817 1 1 0.000000 7.181988 3.309328 7.920692 # 1 UNK
818 1 1 0.000000 7.867316 26.358355 30.462782 # 1 UNK
819 1 1 0.000000 34.062664 29.383890 3.817018 # 1 UNK
820 1 1 0.000000 19.143328 20.791836 32.610516 # 1 UNK
821 1 1 0.000000 14.803173 11.678663 37.694355 # 1 UNK
822 1 1 0.000000 31.072882 27.089645 35.619801 # 1 UNK
823 1 1 0.000000 25.003246 0.099975 4.457352 # 1 UNK
824 1 1 0.000000 0.680709 10.347758 29.472563 # 1 UNK
825 1 1 0.000000 32.294006 8.255938 32.972198 # 1 UNK
826 1 1 0.000000 29.301935 26.105700 22.204582 # 1 UNK
827 1 1 0.000000 4.839901 14.283246 31.276173 # 1 UNK
828 1 1 0.000000 31.043192 27.891491 0.972682 # 1 UNK
829 1 1 0.000000 4.217214 12.041073 10.236791 # 1 UNK
830 1 1 0.000000 33.520008 20.577837 17.778101 # 1 UNK
831 1 1 0.000000 4.319080 22.734045 6.714348 # 1 UNK
832 1 1 0.000000 2.470254 11.510945 18.559582 # 1 UNK
833 1 1 0.000000 29.035755 20.996954 1.621883 # 1 UNK
834 1 1 0.000000 27.333244 33.803791 21.047682 # 1 UNK
835 1 1 0.000000 17.557400 13.939700 28.724928 # 1 UNK
836 1 1 0.000000 22.833454 21.919300 24.324192 # 1 UNK
837 1 1 0.000000 4.122994 36.124737 31.073236 # 1 UNK
838 1 1 0.000000 11.297664 35.662766 33.893101 # 1 UNK
839 1 1 0.000000 19.930990 32.508965 14.238136 # 1 UNK
840 1 1 0.000000 36.903790 33.774162 35.486210 # 1 UNK
841 1 1 0.000000 2.082476 10.562064 21.770983 # 1 UNK
842 1 1 0.000000 19.849863 35.665665 37.882145 # 1 UNK
843 1 1 0.000000 27.094782 8.702831 19.284435 # 1 UNK
844 1 1 0.000000 37.420452 1.748767 28.998245 # 1 UNK
845 1 1 0.000000 19.248209 15.723127 6.143637 # 1 UNK
846 1 1 0.000000 37.446655 11.949191 24.394554 # 1 UNK
847 1 1 0.000000 20.042374 22.567972 36.006908 # 1 UNK
848 1 1 0.000000 8.339161 20.607054 34.067608 # 1 UNK
849 1 1 0.000000 33.823582 0.309348 35.307407 # 1 UNK
850 1 1 0.000000 25.103790 9.749439 14.089281 # 1 UNK
851 1 1 0.000000 23.743727 23.851664 7.668302 # 1 UNK
852 1 1 0.000000 29.759281 17.468700 0.188816 # 1 UNK
853 1 1 0.000000 16.054445 23.629700 33.706081 # 1 UNK
854 1 1 0.000000 16.414690 12.982145 5.412916 # 1 UNK
855 1 1 0.000000 13.592100 26.864500 1.335971 # 1 UNK
856 1 1 0.000000 34.008137 35.460819 28.655100 # 1 UNK
857 1 1 0.000000 15.943609 29.232746 36.274948 # 1 UNK
858 1 1 0.000000 3.398919 18.177855 21.123117 # 1 UNK
859 1 1 0.000000 38.310230 4.411773 34.334690 # 1 UNK
860 1 1 0.000000 19.981817 3.949445 10.171986 # 1 UNK
861 1 1 0.000000 32.933372 17.008801 29.144054 # 1 UNK
862 1 1 0.000000 3.836035 32.160717 9.449039 # 1 UNK
863 1 1 0.000000 3.475092 25.944555 16.928045 # 1 UNK
864 1 1 0.000000 24.129055 21.961218 27.971600 # 1 UNK
865 1 1 0.000000 13.199446 16.671791 17.540863 # 1 UNK
866 1 1 0.000000 13.092182 10.360455 25.556072 # 1 UNK
867 1 1 0.000000 31.170801 36.359909 15.853427 # 1 UNK
868 1 1 0.000000 19.514536 8.772446 28.926582 # 1 UNK
869 1 1 0.000000 25.769518 0.909036 13.932472 # 1 UNK
870 1 1 0.000000 10.629641 19.253664 2.790779 # 1 UNK
871 1 1 0.000000 17.951490 1.459894 24.723436 # 1 UNK
872 1 1 0.000000 2.049368 33.448673 12.226136 # 1 UNK
873 1 1 0.000000 17.925827 0.816668 38.017384 # 1 UNK
874 1 1 0.000000 27.844873 36.029636 0.473673 # 1 UNK
875 1 1 0.000000 22.264736 7.926902 24.598209 # 1 UNK
876 1 1 0.000000 16.802401 17.980173 25.727390 # 1 UNK
877 1 1 0.000000 34.897583 14.401918 14.546727 # 1 UNK
878 1 1 0.000000 32.847874 9.055839 1.527150 # 1 UNK
879 1 1 0.000000 5.503520 37.973072 18.943146 # 1 UNK
880 1 1 0.000000 5.672439 36.069946 5.267218 # 1 UNK
881 1 1 0.000000 26.305155 6.163118 30.526482 # 1 UNK
882 1 1 0.000000 15.415209 33.639282 24.233219 # 1 UNK
883 1 1 0.000000 10.611858 31.685646 28.744692 # 1 UNK
884 1 1 0.000000 31.381172 32.235836 3.490020 # 1 UNK
885 1 1 0.000000 17.823200 11.685410 8.840365 # 1 UNK
886 1 1 0.000000 20.532528 20.869801 16.934982 # 1 UNK
887 1 1 0.000000 0.040959 29.578510 22.988245 # 1 UNK
888 1 1 0.000000 27.427082 12.713382 13.556709 # 1 UNK
889 1 1 0.000000 32.455425 13.912509 9.647098 # 1 UNK
890 1 1 0.000000 18.889473 4.242117 32.719280 # 1 UNK
891 1 1 0.000000 37.546810 18.970699 35.685310 # 1 UNK
892 1 1 0.000000 1.130485 13.638709 31.871309 # 1 UNK
893 1 1 0.000000 11.011537 35.183228 26.035391 # 1 UNK
894 1 1 0.000000 12.266300 19.656973 14.519736 # 1 UNK
895 1 1 0.000000 4.567213 19.072409 0.217403 # 1 UNK
896 1 1 0.000000 11.406909 9.940654 8.322323 # 1 UNK
897 1 1 0.000000 11.792455 38.372162 14.058719 # 1 UNK
898 1 1 0.000000 8.040339 12.508837 9.765725 # 1 UNK
899 1 1 0.000000 8.374078 0.001130 4.592067 # 1 UNK
900 1 1 0.000000 13.126428 33.354099 13.602454 # 1 UNK
901 1 1 0.000000 32.155792 13.344836 36.079517 # 1 UNK
902 1 1 0.000000 19.861444 25.347418 3.766136 # 1 UNK
903 1 1 0.000000 14.931182 18.371119 11.234036 # 1 UNK
904 1 1 0.000000 16.191263 33.268509 13.069791 # 1 UNK
905 1 1 0.000000 4.062726 13.952446 16.325045 # 1 UNK
906 1 1 0.000000 35.287544 26.929554 30.164663 # 1 UNK
907 1 1 0.000000 33.174553 27.689035 9.484214 # 1 UNK
908 1 1 0.000000 16.244200 24.787819 29.961563 # 1 UNK
909 1 1 0.000000 12.892109 30.172110 33.034290 # 1 UNK
910 1 1 0.000000 32.515835 33.589073 16.023228 # 1 UNK
911 1 1 0.000000 38.019218 17.403627 28.807510 # 1 UNK
912 1 1 0.000000 31.894936 3.044495 19.362400 # 1 UNK
913 1 1 0.000000 20.315746 3.529849 21.963755 # 1 UNK
914 1 1 0.000000 31.263800 20.495783 9.533101 # 1 UNK
915 1 1 0.000000 36.686344 13.519282 28.414581 # 1 UNK
916 1 1 0.000000 30.528236 4.153513 11.332373 # 1 UNK
917 1 1 0.000000 10.001549 38.582184 26.600554 # 1 UNK
918 1 1 0.000000 37.721382 26.741318 11.049772 # 1 UNK
919 1 1 0.000000 5.575644 14.652582 27.816753 # 1 UNK
920 1 1 0.000000 9.098649 6.265647 30.321527 # 1 UNK
921 1 1 0.000000 16.256399 8.222653 0.234750 # 1 UNK
922 1 1 0.000000 37.591663 30.337835 36.964073 # 1 UNK
923 1 1 0.000000 29.135145 6.036943 3.565851 # 1 UNK
924 1 1 0.000000 31.943272 27.380890 20.077127 # 1 UNK
925 1 1 0.000000 16.218119 34.840710 4.267589 # 1 UNK
926 1 1 0.000000 37.961735 10.562338 4.821856 # 1 UNK
927 1 1 0.000000 24.525572 12.658782 29.719437 # 1 UNK
928 1 1 0.000000 9.981053 20.793863 24.322510 # 1 UNK
929 1 1 0.000000 23.328255 8.154542 7.798378 # 1 UNK
930 1 1 0.000000 7.857023 4.546004 14.005881 # 1 UNK
931 1 1 0.000000 9.370564 30.101164 5.828730 # 1 UNK
932 1 1 0.000000 27.424200 32.038616 2.626299 # 1 UNK
933 1 1 0.000000 27.801382 16.521437 30.695509 # 1 UNK
934 1 1 0.000000 10.757291 27.272390 22.164791 # 1 UNK
935 1 1 0.000000 1.153821 5.572768 7.376307 # 1 UNK
936 1 1 0.000000 22.231764 15.166691 13.681864 # 1 UNK
937 1 1 0.000000 12.860673 5.580426 37.932320 # 1 UNK
938 1 1 0.000000 37.541409 34.508366 10.589309 # 1 UNK
939 1 1 0.000000 26.201956 19.296692 19.429991 # 1 UNK
940 1 1 0.000000 0.959651 30.058718 12.022118 # 1 UNK
941 1 1 0.000000 22.676300 36.210228 25.647692 # 1 UNK
942 1 1 0.000000 6.560251 23.711691 2.560347 # 1 UNK
943 1 1 0.000000 27.904200 15.135654 6.993083 # 1 UNK
944 1 1 0.000000 25.765064 37.551273 16.552444 # 1 UNK
945 1 1 0.000000 13.496346 0.012657 25.765564 # 1 UNK
946 1 1 0.000000 20.930664 8.155080 32.756081 # 1 UNK
947 1 1 0.000000 0.857755 6.805687 37.121410 # 1 UNK
948 1 1 0.000000 11.795682 18.802591 35.696644 # 1 UNK
949 1 1 0.000000 5.882166 15.120519 13.129019 # 1 UNK
950 1 1 0.000000 27.666162 5.300041 12.984345 # 1 UNK
951 1 1 0.000000 28.268663 24.664782 35.487919 # 1 UNK
952 1 1 0.000000 25.413956 9.166415 0.346190 # 1 UNK
953 1 1 0.000000 29.893446 36.957928 7.977156 # 1 UNK
954 1 1 0.000000 32.310310 20.286409 21.325390 # 1 UNK
955 1 1 0.000000 21.070190 15.933573 9.999249 # 1 UNK
956 1 1 0.000000 2.916797 12.778891 7.148702 # 1 UNK
957 1 1 0.000000 33.522190 37.209599 6.543164 # 1 UNK
958 1 1 0.000000 3.542117 20.775581 34.458500 # 1 UNK
959 1 1 0.000000 4.728550 35.651253 15.336954 # 1 UNK
960 1 1 0.000000 30.563026 7.888825 17.868900 # 1 UNK
961 1 1 0.000000 0.246611 26.129519 37.819756 # 1 UNK
962 1 1 0.000000 2.553638 32.970634 35.264507 # 1 UNK
963 1 1 0.000000 28.444017 15.854209 18.054211 # 1 UNK
964 1 1 0.000000 5.854469 31.693245 6.136679 # 1 UNK
965 1 1 0.000000 15.934754 7.007509 23.823772 # 1 UNK
966 1 1 0.000000 17.203091 0.164780 4.435897 # 1 UNK
967 1 1 0.000000 26.632618 31.263556 34.269001 # 1 UNK
968 1 1 0.000000 7.620731 34.768044 20.600000 # 1 UNK
969 1 1 0.000000 4.586025 4.240719 16.396973 # 1 UNK
970 1 1 0.000000 11.804854 33.572510 17.234364 # 1 UNK
971 1 1 0.000000 13.035373 24.834091 31.799446 # 1 UNK
972 1 1 0.000000 0.861577 10.979527 11.054218 # 1 UNK
973 1 1 0.000000 16.363382 37.474300 13.140400 # 1 UNK
974 1 1 0.000000 9.222680 10.756436 23.290964 # 1 UNK
975 1 1 0.000000 25.404573 35.490963 7.442553 # 1 UNK
976 1 1 0.000000 36.197937 22.573755 5.769686 # 1 UNK
977 1 1 0.000000 19.336201 8.480231 2.206422 # 1 UNK
978 1 1 0.000000 29.995001 4.780689 21.679764 # 1 UNK
979 1 1 0.000000 37.786400 22.740210 21.116928 # 1 UNK
980 1 1 0.000000 31.248837 33.664062 21.003691 # 1 UNK
981 1 1 0.000000 37.410583 23.554981 1.474049 # 1 UNK
982 1 1 0.000000 6.295936 10.129702 0.010882 # 1 UNK
983 1 1 0.000000 33.515816 12.455700 24.158382 # 1 UNK
984 1 1 0.000000 30.366426 35.196671 10.252233 # 1 UNK
985 1 1 0.000000 5.853718 35.042480 9.094226 # 1 UNK
986 1 1 0.000000 30.596182 29.442736 30.853090 # 1 UNK
987 1 1 0.000000 38.513149 23.107037 11.726055 # 1 UNK
988 1 1 0.000000 30.932209 13.425145 4.663702 # 1 UNK
989 1 1 0.000000 29.492819 10.847781 16.245972 # 1 UNK
990 1 1 0.000000 16.972490 29.916681 25.983000 # 1 UNK
991 1 1 0.000000 1.248958 16.497581 36.878963 # 1 UNK
992 1 1 0.000000 9.108269 27.036545 1.655442 # 1 UNK
993 1 1 0.000000 1.879323 3.027056 5.585346 # 1 UNK
994 1 1 0.000000 21.273800 34.669083 10.430544 # 1 UNK
995 1 1 0.000000 14.549755 19.691490 3.429062 # 1 UNK
996 1 1 0.000000 2.203760 26.934727 26.597855 # 1 UNK
997 1 1 0.000000 17.349491 20.633682 28.598837 # 1 UNK
998 1 1 0.000000 14.924946 22.085764 26.443419 # 1 UNK
999 1 1 0.000000 26.364408 7.923874 23.400917 # 1 UNK
1000 1 1 0.000000 36.244537 37.224735 26.308300 # 1 UNK
1001 1 1 0.000000 38.020298 14.738791 18.095692 # 1 UNK
1002 1 1 0.000000 16.550364 5.011399 21.379045 # 1 UNK
1003 1 1 0.000000 6.942410 25.533882 7.373253 # 1 UNK
1004 1 1 0.000000 16.673264 28.825274 16.311136 # 1 UNK
1005 1 1 0.000000 16.636074 24.752872 23.121546 # 1 UNK
1006 1 1 0.000000 20.098072 10.806091 5.370429 # 1 UNK
1007 1 1 0.000000 22.256346 12.460155 17.786728 # 1 UNK
1008 1 1 0.000000 29.143818 34.932781 24.957100 # 1 UNK
1009 1 1 0.000000 10.518463 2.369766 1.083773 # 1 UNK
1010 1 1 0.000000 32.376865 6.331824 8.740742 # 1 UNK
1011 1 1 0.000000 0.933796 24.563135 24.102182 # 1 UNK
1012 1 1 0.000000 26.550909 1.992539 35.763401 # 1 UNK
1013 1 1 0.000000 19.677710 3.511184 2.168037 # 1 UNK
1014 1 1 0.000000 13.780627 12.140291 10.210363 # 1 UNK
1015 1 1 0.000000 34.016392 36.117207 32.732929 # 1 UNK
1016 1 1 0.000000 19.276218 30.890701 34.988655 # 1 UNK
1017 1 1 0.000000 16.715244 25.893456 9.046720 # 1 UNK
1018 1 1 0.000000 17.105827 31.026972 22.284208 # 1 UNK
1019 1 1 0.000000 36.839672 8.245031 20.145500 # 1 UNK
1020 1 1 0.000000 1.239984 20.571064 23.553099 # 1 UNK
1021 1 1 0.000000 22.972609 6.388968 10.970618 # 1 UNK
1022 1 1 0.000000 31.695890 16.339254 32.341255 # 1 UNK
1023 1 1 0.000000 18.430464 28.079865 21.011009 # 1 UNK
1024 1 1 0.000000 5.481167 21.595535 36.624500 # 1 UNK

