LAMMPS data file. CGCMM style. atom_style full generated by VMD/TopoTools v1.8 on Thu Jul 31 00:30:44 CDT 2025
 3456 atoms
 0 bonds
 0 angles
 0 dihedrals
 0 impropers
 2 atom types
 0 bond types
 0 angle types
 0 dihedral types
 0 improper types
 0.006333 47.056332  xlo xhi
 -0.002760 47.047239  ylo yhi
 -0.021727 47.028272  zlo zhi

# Pair Coeffs
#
# 1  1
# 2  2

 Masses

 1 18.014999 # 1
 2 44.008999 # 2

 Atoms # full

1 1 1 0.000000 12.228000 0.503645 3.571570 # 1 UNK
2 1 1 0.000000 12.229800 2.690530 1.941520 # 1 UNK
3 1 1 0.000000 12.209100 2.735870 10.880200 # 1 UNK
4 1 1 0.000000 12.307600 10.019400 1.947800 # 1 UNK
5 1 1 0.000000 12.272100 10.059200 10.876000 # 1 UNK
6 1 1 0.000000 18.160000 9.296430 0.533831 # 1 UNK
7 1 1 0.000000 18.179100 1.868860 2.786950 # 1 UNK
8 1 1 0.000000 18.189600 10.924700 2.721430 # 1 UNK
9 1 1 0.000000 18.160000 1.869020 10.107600 # 1 UNK
10 1 1 0.000000 18.186501 10.911500 10.041500 # 1 UNK
11 1 1 0.000000 15.909000 4.956910 0.563863 # 1 UNK
12 1 1 0.000000 14.497900 0.500383 7.827830 # 1 UNK
13 1 1 0.000000 14.403400 4.175110 2.721900 # 1 UNK
14 1 1 0.000000 14.384100 4.233990 10.129500 # 1 UNK
15 1 1 0.000000 14.455400 8.493700 2.714100 # 1 UNK
16 1 1 0.000000 14.430600 8.557290 10.089700 # 1 UNK
17 1 1 0.000000 16.021999 2.638120 4.302010 # 1 UNK
18 1 1 0.000000 16.044100 10.120200 4.233700 # 1 UNK
19 1 1 0.000000 16.009800 2.658760 8.594750 # 1 UNK
20 1 1 0.000000 16.035601 10.125400 8.525980 # 1 UNK
21 1 1 0.000000 20.378700 4.976460 0.503334 # 1 UNK
22 1 1 0.000000 21.829100 0.513873 7.836590 # 1 UNK
23 1 1 0.000000 21.891300 4.201190 2.659230 # 1 UNK
24 1 1 0.000000 21.880301 4.285820 10.182600 # 1 UNK
25 1 1 0.000000 21.902300 8.509600 2.645270 # 1 UNK
26 1 1 0.000000 21.891199 8.592030 10.170000 # 1 UNK
27 1 1 0.000000 20.333799 2.657520 4.293560 # 1 UNK
28 1 1 0.000000 20.351000 10.126600 4.212580 # 1 UNK
29 1 1 0.000000 20.322500 2.670540 8.619440 # 1 UNK
30 1 1 0.000000 20.343800 10.139300 8.530220 # 1 UNK
31 1 1 0.000000 15.251300 6.387900 6.417860 # 1 UNK
32 1 1 0.000000 21.129700 6.392330 6.408850 # 1 UNK
33 1 1 0.000000 13.626100 6.390720 8.608140 # 1 UNK
34 1 1 0.000000 22.664200 6.432990 8.661810 # 1 UNK
35 1 1 0.000000 13.640300 6.346660 4.217740 # 1 UNK
36 1 1 0.000000 22.677401 6.358130 4.164700 # 1 UNK
37 1 1 0.000000 16.820900 4.158870 6.443760 # 1 UNK
38 1 1 0.000000 19.553699 4.167330 6.449980 # 1 UNK
39 1 1 0.000000 16.835800 8.606570 6.382920 # 1 UNK
40 1 1 0.000000 19.568501 8.627580 6.374540 # 1 UNK
41 1 1 0.000000 0.514067 12.177600 9.380150 # 1 UNK
42 1 1 0.000000 2.698130 12.205500 4.991560 # 1 UNK
43 1 1 0.000000 10.026000 12.272400 5.005420 # 1 UNK
44 1 1 0.000000 0.525643 21.848900 1.857850 # 1 UNK
45 1 1 0.000000 0.537016 21.782900 10.965200 # 1 UNK
46 1 1 0.000000 6.396340 21.165300 0.533753 # 1 UNK
47 1 1 0.000000 6.357740 13.610900 2.726310 # 1 UNK
48 1 1 0.000000 6.364240 22.697500 2.788770 # 1 UNK
49 1 1 0.000000 6.345120 13.594600 10.042300 # 1 UNK
50 1 1 0.000000 6.369490 22.701099 10.101800 # 1 UNK
51 1 1 0.000000 4.184350 16.844999 0.524435 # 1 UNK
52 1 1 0.000000 2.683220 12.209000 7.724750 # 1 UNK
53 1 1 0.000000 2.655940 16.019100 2.650620 # 1 UNK
54 1 1 0.000000 2.671820 15.934900 10.162400 # 1 UNK
55 1 1 0.000000 2.669850 20.340000 2.672290 # 1 UNK
56 1 1 0.000000 2.674920 20.253599 10.171500 # 1 UNK
57 1 1 0.000000 4.184830 14.380600 4.218580 # 1 UNK
58 1 1 0.000000 4.212970 21.906000 4.299230 # 1 UNK
59 1 1 0.000000 4.191790 14.361700 8.519840 # 1 UNK
60 1 1 0.000000 4.213020 21.889099 8.609660 # 1 UNK
61 1 1 0.000000 8.599990 16.860001 0.563954 # 1 UNK
62 1 1 0.000000 10.019200 12.269100 7.736820 # 1 UNK
63 1 1 0.000000 10.104000 16.041599 2.709870 # 1 UNK
64 1 1 0.000000 10.099100 15.959600 10.096400 # 1 UNK
65 1 1 0.000000 10.117800 20.358601 2.738040 # 1 UNK
66 1 1 0.000000 10.107900 20.280701 10.115200 # 1 UNK
67 1 1 0.000000 8.507420 14.422900 4.229520 # 1 UNK
68 1 1 0.000000 8.515320 21.921499 4.308150 # 1 UNK
69 1 1 0.000000 8.486760 14.405400 8.526950 # 1 UNK
70 1 1 0.000000 8.519950 21.904600 8.592540 # 1 UNK
71 1 1 0.000000 3.438060 18.141800 6.409040 # 1 UNK
72 1 1 0.000000 9.278900 18.152000 6.412590 # 1 UNK
73 1 1 0.000000 1.898910 18.097799 8.658760 # 1 UNK
74 1 1 0.000000 10.894300 18.124701 8.609420 # 1 UNK
75 1 1 0.000000 1.887030 18.174999 4.167490 # 1 UNK
76 1 1 0.000000 10.903600 18.188101 4.222310 # 1 UNK
77 1 1 0.000000 4.970550 15.887500 6.374040 # 1 UNK
78 1 1 0.000000 7.702960 15.927600 6.380210 # 1 UNK
79 1 1 0.000000 4.989730 20.384300 6.448660 # 1 UNK
80 1 1 0.000000 7.723370 20.391800 6.445490 # 1 UNK
81 1 1 0.000000 0.494780 9.928550 1.864760 # 1 UNK
82 1 1 0.000000 0.466417 9.920460 10.912000 # 1 UNK
83 1 1 0.000000 6.372410 9.245850 0.547568 # 1 UNK
84 1 1 0.000000 6.299180 1.812120 2.726960 # 1 UNK
85 1 1 0.000000 6.358740 10.878200 2.733500 # 1 UNK
86 1 1 0.000000 6.108990 1.914560 9.875810 # 1 UNK
87 1 1 0.000000 6.346710 10.861300 10.030300 # 1 UNK
88 1 1 0.000000 4.036740 4.830930 0.570961 # 1 UNK
89 1 1 0.000000 2.050310 0.202653 8.391650 # 1 UNK
90 1 1 0.000000 2.380070 3.923610 2.597080 # 1 UNK
91 1 1 0.000000 2.779790 4.078340 9.993600 # 1 UNK
92 1 1 0.000000 2.668870 8.429260 2.624790 # 1 UNK
93 1 1 0.000000 2.657630 8.465300 10.120000 # 1 UNK
94 1 1 0.000000 4.214190 2.739380 4.256750 # 1 UNK
95 1 1 0.000000 4.201750 10.044800 4.213280 # 1 UNK
96 1 1 0.000000 3.903540 2.262150 8.229550 # 1 UNK
97 1 1 0.000000 4.197980 10.061800 8.520230 # 1 UNK
98 1 1 0.000000 8.532380 4.992260 0.563056 # 1 UNK
99 1 1 0.000000 9.954830 0.492319 7.800070 # 1 UNK
100 1 1 0.000000 10.069700 4.203800 2.699480 # 1 UNK
101 1 1 0.000000 10.053800 4.245320 10.099300 # 1 UNK
102 1 1 0.000000 10.146700 8.517270 2.721910 # 1 UNK
103 1 1 0.000000 10.110100 8.559950 10.098000 # 1 UNK
104 1 1 0.000000 8.445180 2.634790 4.241100 # 1 UNK
105 1 1 0.000000 8.522360 10.109700 4.237140 # 1 UNK
106 1 1 0.000000 8.433830 2.640140 8.588850 # 1 UNK
107 1 1 0.000000 8.510690 10.113300 8.515970 # 1 UNK
108 1 1 0.000000 3.369270 6.332160 6.351020 # 1 UNK
109 1 1 0.000000 9.294140 6.368640 6.403050 # 1 UNK
110 1 1 0.000000 1.874250 6.293670 8.634580 # 1 UNK
111 1 1 0.000000 10.894200 6.392660 8.609930 # 1 UNK
112 1 1 0.000000 1.892880 6.218810 4.058760 # 1 UNK
113 1 1 0.000000 10.908300 6.339040 4.206520 # 1 UNK
114 1 1 0.000000 4.976790 4.134250 6.498330 # 1 UNK
115 1 1 0.000000 7.708730 4.150590 6.410160 # 1 UNK
116 1 1 0.000000 4.980400 8.538370 6.373040 # 1 UNK
117 1 1 0.000000 7.714100 8.591330 6.375490 # 1 UNK
118 1 1 0.000000 6.374710 3.366370 12.182900 # 1 UNK
119 1 1 0.000000 4.172960 7.695250 12.279100 # 1 UNK
120 1 1 0.000000 8.616920 7.765960 12.259100 # 1 UNK
121 1 1 0.000000 0.478386 9.939940 13.647200 # 1 UNK
122 1 1 0.000000 0.464651 9.940600 22.650000 # 1 UNK
123 1 1 0.000000 6.370520 9.313780 12.275500 # 1 UNK
124 1 1 0.000000 6.374670 1.848800 14.453800 # 1 UNK
125 1 1 0.000000 6.395150 10.862000 14.520600 # 1 UNK
126 1 1 0.000000 6.395610 1.878480 21.846600 # 1 UNK
127 1 1 0.000000 6.430570 10.880200 21.846300 # 1 UNK
128 1 1 0.000000 4.153850 4.960090 12.212700 # 1 UNK
129 1 1 0.000000 2.365400 0.691587 19.903601 # 1 UNK
130 1 1 0.000000 2.657390 4.159960 14.374800 # 1 UNK
131 1 1 0.000000 2.794180 4.291390 21.984900 # 1 UNK
132 1 1 0.000000 2.664540 8.475550 14.440000 # 1 UNK
133 1 1 0.000000 2.668920 8.488790 21.890600 # 1 UNK
134 1 1 0.000000 4.328340 2.766870 16.038401 # 1 UNK
135 1 1 0.000000 4.242410 10.055100 16.022301 # 1 UNK
136 1 1 0.000000 4.246500 2.666770 20.327400 # 1 UNK
137 1 1 0.000000 4.280940 10.067600 20.345600 # 1 UNK
138 1 1 0.000000 8.538350 5.032360 12.251100 # 1 UNK
139 1 1 0.000000 10.012700 0.481779 19.505301 # 1 UNK
140 1 1 0.000000 10.079500 4.258060 14.390000 # 1 UNK
141 1 1 0.000000 10.115800 4.213020 21.940300 # 1 UNK
142 1 1 0.000000 10.124300 8.564140 14.409500 # 1 UNK
143 1 1 0.000000 10.146800 8.511890 21.936501 # 1 UNK
144 1 1 0.000000 8.523140 2.652840 15.965200 # 1 UNK
145 1 1 0.000000 8.562350 10.115400 16.031601 # 1 UNK
146 1 1 0.000000 8.548500 2.655690 20.328501 # 1 UNK
147 1 1 0.000000 8.588300 10.096200 20.343399 # 1 UNK
148 1 1 0.000000 3.409770 6.377670 18.153999 # 1 UNK
149 1 1 0.000000 9.377430 6.393390 18.172300 # 1 UNK
150 1 1 0.000000 1.863050 6.328420 20.399900 # 1 UNK
151 1 1 0.000000 10.915600 6.355480 20.421801 # 1 UNK
152 1 1 0.000000 1.861340 6.294860 15.910200 # 1 UNK
153 1 1 0.000000 10.893800 6.397290 15.907300 # 1 UNK
154 1 1 0.000000 5.089920 4.231540 18.231800 # 1 UNK
155 1 1 0.000000 7.818840 4.157310 18.150000 # 1 UNK
156 1 1 0.000000 5.048280 8.560500 18.181299 # 1 UNK
157 1 1 0.000000 7.781240 8.603600 18.186300 # 1 UNK
158 1 1 0.000000 24.048800 0.524715 3.489920 # 1 UNK
159 1 1 0.000000 24.045200 2.703680 1.849870 # 1 UNK
160 1 1 0.000000 24.035801 2.774550 10.962200 # 1 UNK
161 1 1 0.000000 12.270600 12.265300 9.272930 # 1 UNK
162 1 1 0.000000 14.537300 12.282300 5.000190 # 1 UNK
163 1 1 0.000000 21.852900 12.286500 4.993410 # 1 UNK
164 1 1 0.000000 12.279800 12.278800 3.472170 # 1 UNK
165 1 1 0.000000 12.268500 14.537500 1.945770 # 1 UNK
166 1 1 0.000000 12.266600 14.469000 10.879500 # 1 UNK
167 1 1 0.000000 12.278000 21.855101 1.948220 # 1 UNK
168 1 1 0.000000 12.263700 21.793301 10.886200 # 1 UNK
169 1 1 0.000000 18.168800 21.149700 0.527014 # 1 UNK
170 1 1 0.000000 18.188299 13.657100 2.724520 # 1 UNK
171 1 1 0.000000 18.200100 22.684500 2.780220 # 1 UNK
172 1 1 0.000000 18.188499 13.644200 10.044000 # 1 UNK
173 1 1 0.000000 18.184500 22.673500 10.099500 # 1 UNK
174 1 1 0.000000 15.942300 16.851801 0.558449 # 1 UNK
175 1 1 0.000000 14.518500 12.271000 7.731670 # 1 UNK
176 1 1 0.000000 14.432000 16.047100 2.704470 # 1 UNK
177 1 1 0.000000 14.424800 15.971200 10.094400 # 1 UNK
178 1 1 0.000000 14.437700 20.353399 2.730640 # 1 UNK
179 1 1 0.000000 14.422400 20.283100 10.116100 # 1 UNK
180 1 1 0.000000 16.038099 14.448900 4.235710 # 1 UNK
181 1 1 0.000000 16.052099 21.903900 4.301820 # 1 UNK
182 1 1 0.000000 16.036100 14.416800 8.523800 # 1 UNK
183 1 1 0.000000 16.033400 21.880899 8.589660 # 1 UNK
184 1 1 0.000000 20.400000 16.853001 0.505066 # 1 UNK
185 1 1 0.000000 21.856600 12.283400 7.725290 # 1 UNK
186 1 1 0.000000 21.924999 16.045700 2.640550 # 1 UNK
187 1 1 0.000000 21.908100 15.972100 10.168300 # 1 UNK
188 1 1 0.000000 21.914600 20.356100 2.658850 # 1 UNK
189 1 1 0.000000 21.908199 20.268999 10.177600 # 1 UNK
190 1 1 0.000000 20.355499 14.449200 4.210950 # 1 UNK
191 1 1 0.000000 20.356300 21.903799 4.288660 # 1 UNK
192 1 1 0.000000 20.346701 14.427000 8.538920 # 1 UNK
193 1 1 0.000000 20.350300 21.880699 8.611460 # 1 UNK
194 1 1 0.000000 15.253900 18.163601 6.416190 # 1 UNK
195 1 1 0.000000 21.151800 18.161100 6.408340 # 1 UNK
196 1 1 0.000000 13.626700 18.133900 8.604390 # 1 UNK
197 1 1 0.000000 22.694300 18.123800 8.655890 # 1 UNK
198 1 1 0.000000 13.635900 18.192600 4.220910 # 1 UNK
199 1 1 0.000000 22.696800 18.196800 4.162440 # 1 UNK
200 1 1 0.000000 16.840900 15.947000 6.390830 # 1 UNK
201 1 1 0.000000 19.573400 15.937600 6.380690 # 1 UNK
202 1 1 0.000000 16.845501 20.377399 6.441300 # 1 UNK
203 1 1 0.000000 19.578400 20.388201 6.441300 # 1 UNK
204 1 1 0.000000 18.136101 3.494280 12.297100 # 1 UNK
205 1 1 0.000000 15.925900 7.785680 12.259600 # 1 UNK
206 1 1 0.000000 20.382700 7.815510 12.326900 # 1 UNK
207 1 1 0.000000 12.202500 0.503797 15.198700 # 1 UNK
208 1 1 0.000000 12.217800 2.721510 13.612100 # 1 UNK
209 1 1 0.000000 12.248500 2.682760 22.745501 # 1 UNK
210 1 1 0.000000 12.273300 10.071700 13.608000 # 1 UNK
211 1 1 0.000000 12.285100 10.036500 22.732901 # 1 UNK
212 1 1 0.000000 18.144199 9.373030 12.291900 # 1 UNK
213 1 1 0.000000 18.111799 1.869050 14.486800 # 1 UNK
214 1 1 0.000000 18.124500 10.914700 14.540400 # 1 UNK
215 1 1 0.000000 18.120501 1.872330 21.805099 # 1 UNK
216 1 1 0.000000 18.134600 10.925600 21.861601 # 1 UNK
217 1 1 0.000000 15.899100 5.052420 12.268200 # 1 UNK
218 1 1 0.000000 14.435800 0.521691 19.503401 # 1 UNK
219 1 1 0.000000 14.366700 4.241500 14.398000 # 1 UNK
220 1 1 0.000000 14.397600 4.188720 21.937901 # 1 UNK
221 1 1 0.000000 14.419200 8.563570 14.419600 # 1 UNK
222 1 1 0.000000 14.423100 8.507670 21.940800 # 1 UNK
223 1 1 0.000000 15.945100 2.659410 15.975300 # 1 UNK
224 1 1 0.000000 15.967900 10.126000 16.044600 # 1 UNK
225 1 1 0.000000 15.964400 2.658710 20.299500 # 1 UNK
226 1 1 0.000000 15.975700 10.120500 20.370199 # 1 UNK
227 1 1 0.000000 20.352200 5.082670 12.319900 # 1 UNK
228 1 1 0.000000 21.789700 0.505840 19.490299 # 1 UNK
229 1 1 0.000000 21.867001 4.276700 14.463300 # 1 UNK
230 1 1 0.000000 21.872801 4.202970 21.863199 # 1 UNK
231 1 1 0.000000 21.880600 8.593240 14.490800 # 1 UNK
232 1 1 0.000000 21.877501 8.518480 21.882601 # 1 UNK
233 1 1 0.000000 20.265100 2.669620 15.989900 # 1 UNK
234 1 1 0.000000 20.274401 10.147400 16.066099 # 1 UNK
235 1 1 0.000000 20.269300 2.650310 20.283199 # 1 UNK
236 1 1 0.000000 20.285400 10.131100 20.351801 # 1 UNK
237 1 1 0.000000 15.172900 6.392280 18.165800 # 1 UNK
238 1 1 0.000000 21.052500 6.395130 18.176701 # 1 UNK
239 1 1 0.000000 13.648200 6.353520 20.425600 # 1 UNK
240 1 1 0.000000 22.668301 6.366250 20.373199 # 1 UNK
241 1 1 0.000000 13.626800 6.405730 15.920000 # 1 UNK
242 1 1 0.000000 22.664499 6.423590 15.977200 # 1 UNK
243 1 1 0.000000 16.737801 4.159070 18.134199 # 1 UNK
244 1 1 0.000000 19.470600 4.174970 18.143801 # 1 UNK
245 1 1 0.000000 16.746401 8.620240 18.204500 # 1 UNK
246 1 1 0.000000 19.479099 8.621680 18.205500 # 1 UNK
247 1 1 0.000000 0.526476 24.052299 9.454340 # 1 UNK
248 1 1 0.000000 2.707760 24.058399 5.098610 # 1 UNK
249 1 1 0.000000 10.030600 24.071899 5.090500 # 1 UNK
250 1 1 0.000000 6.390860 15.143600 12.286100 # 1 UNK
251 1 1 0.000000 4.193580 19.463600 12.318700 # 1 UNK
252 1 1 0.000000 8.599640 19.474199 12.262200 # 1 UNK
253 1 1 0.000000 0.508080 12.203300 21.127701 # 1 UNK
254 1 1 0.000000 2.718240 12.194000 16.825001 # 1 UNK
255 1 1 0.000000 10.074200 12.259700 16.837700 # 1 UNK
256 1 1 0.000000 0.536069 21.781099 13.698800 # 1 UNK
257 1 1 0.000000 0.530212 21.820000 22.628401 # 1 UNK
258 1 1 0.000000 6.392770 21.076200 12.292200 # 1 UNK
259 1 1 0.000000 6.399410 13.595200 14.530700 # 1 UNK
260 1 1 0.000000 6.417170 22.694099 14.487800 # 1 UNK
261 1 1 0.000000 6.403750 13.612200 21.858801 # 1 UNK
262 1 1 0.000000 6.422000 22.694201 21.809999 # 1 UNK
263 1 1 0.000000 4.172830 16.730801 12.319600 # 1 UNK
264 1 1 0.000000 2.737080 12.195800 19.556801 # 1 UNK
265 1 1 0.000000 2.681370 15.940600 14.485700 # 1 UNK
266 1 1 0.000000 2.686570 15.996100 21.877300 # 1 UNK
267 1 1 0.000000 2.690120 20.265100 14.472100 # 1 UNK
268 1 1 0.000000 2.688590 20.316000 21.844999 # 1 UNK
269 1 1 0.000000 4.246220 14.345600 16.063700 # 1 UNK
270 1 1 0.000000 4.273220 21.888500 16.001801 # 1 UNK
271 1 1 0.000000 4.242410 14.356000 20.336201 # 1 UNK
272 1 1 0.000000 4.278620 21.904100 20.285700 # 1 UNK
273 1 1 0.000000 8.602440 16.741100 12.260800 # 1 UNK
274 1 1 0.000000 10.076400 12.268300 19.570101 # 1 UNK
275 1 1 0.000000 10.109500 15.959600 14.418900 # 1 UNK
276 1 1 0.000000 10.106900 16.038200 21.932400 # 1 UNK
277 1 1 0.000000 10.118700 20.274500 14.403900 # 1 UNK
278 1 1 0.000000 10.123400 20.354099 21.925301 # 1 UNK
279 1 1 0.000000 8.550690 14.398300 16.035999 # 1 UNK
280 1 1 0.000000 8.578230 21.894600 15.978700 # 1 UNK
281 1 1 0.000000 8.561400 14.416000 20.363400 # 1 UNK
282 1 1 0.000000 8.576340 21.914801 20.297400 # 1 UNK
283 1 1 0.000000 3.518600 18.130301 18.171101 # 1 UNK
284 1 1 0.000000 9.347460 18.147900 18.171200 # 1 UNK
285 1 1 0.000000 1.895580 18.145700 20.362900 # 1 UNK
286 1 1 0.000000 10.889700 18.191500 20.419100 # 1 UNK
287 1 1 0.000000 1.899470 18.108900 15.976300 # 1 UNK
288 1 1 0.000000 10.888200 18.120701 15.921900 # 1 UNK
289 1 1 0.000000 5.051490 15.876200 18.196800 # 1 UNK
290 1 1 0.000000 7.784880 15.911900 18.195801 # 1 UNK
291 1 1 0.000000 5.070540 20.372200 18.148001 # 1 UNK
292 1 1 0.000000 7.804190 20.396900 18.144501 # 1 UNK
293 1 1 0.000000 24.058399 12.282600 3.389330 # 1 UNK
294 1 1 0.000000 24.078899 14.535600 1.855490 # 1 UNK
295 1 1 0.000000 24.055901 14.462800 10.971800 # 1 UNK
296 1 1 0.000000 12.275800 24.054399 9.363240 # 1 UNK
297 1 1 0.000000 14.525600 24.044600 5.091490 # 1 UNK
298 1 1 0.000000 21.858900 24.053600 5.100740 # 1 UNK
299 1 1 0.000000 18.158899 15.188600 12.290700 # 1 UNK
300 1 1 0.000000 15.934100 19.481600 12.262800 # 1 UNK
301 1 1 0.000000 20.387199 19.480000 12.322500 # 1 UNK
302 1 1 0.000000 12.273000 12.281800 21.187700 # 1 UNK
303 1 1 0.000000 14.464300 12.276300 16.851700 # 1 UNK
304 1 1 0.000000 21.797899 12.289800 16.856501 # 1 UNK
305 1 1 0.000000 12.274900 12.266200 15.226700 # 1 UNK
306 1 1 0.000000 12.265000 14.462900 13.611400 # 1 UNK
307 1 1 0.000000 12.259100 14.530600 22.727800 # 1 UNK
308 1 1 0.000000 12.267200 21.791599 13.618500 # 1 UNK
309 1 1 0.000000 12.271500 21.862101 22.731199 # 1 UNK
310 1 1 0.000000 18.161100 21.054001 12.293700 # 1 UNK
311 1 1 0.000000 18.123600 13.647400 14.539500 # 1 UNK
312 1 1 0.000000 18.131201 22.673901 14.487400 # 1 UNK
313 1 1 0.000000 18.139000 13.658400 21.860399 # 1 UNK
314 1 1 0.000000 18.127100 22.684500 21.801399 # 1 UNK
315 1 1 0.000000 15.922800 16.748899 12.259300 # 1 UNK
316 1 1 0.000000 14.477900 12.281200 19.583500 # 1 UNK
317 1 1 0.000000 14.410600 15.974200 14.416300 # 1 UNK
318 1 1 0.000000 14.406900 16.047100 21.939199 # 1 UNK
319 1 1 0.000000 14.411600 20.268600 14.407500 # 1 UNK
320 1 1 0.000000 14.412200 20.349701 21.915899 # 1 UNK
321 1 1 0.000000 15.968300 14.428700 16.049101 # 1 UNK
322 1 1 0.000000 15.967900 21.878401 15.977500 # 1 UNK
323 1 1 0.000000 15.972000 14.444500 20.370800 # 1 UNK
324 1 1 0.000000 15.969100 21.907000 20.293800 # 1 UNK
325 1 1 0.000000 20.396400 16.746901 12.325200 # 1 UNK
326 1 1 0.000000 21.797600 12.291400 19.588800 # 1 UNK
327 1 1 0.000000 21.896900 15.971900 14.489300 # 1 UNK
328 1 1 0.000000 21.903999 16.045500 21.887899 # 1 UNK
329 1 1 0.000000 21.899099 20.281200 14.469100 # 1 UNK
330 1 1 0.000000 21.896601 20.356600 21.857300 # 1 UNK
331 1 1 0.000000 20.273199 14.428900 16.058599 # 1 UNK
332 1 1 0.000000 20.285400 21.879601 15.992000 # 1 UNK
333 1 1 0.000000 20.292299 14.454200 20.355000 # 1 UNK
334 1 1 0.000000 20.277800 21.901300 20.285000 # 1 UNK
335 1 1 0.000000 15.171600 18.162201 18.171301 # 1 UNK
336 1 1 0.000000 21.076599 18.165100 18.175301 # 1 UNK
337 1 1 0.000000 13.622300 18.191601 20.414400 # 1 UNK
338 1 1 0.000000 22.695200 18.192400 20.370300 # 1 UNK
339 1 1 0.000000 13.620900 18.124599 15.929300 # 1 UNK
340 1 1 0.000000 22.696199 18.132799 15.981200 # 1 UNK
341 1 1 0.000000 16.750799 15.939300 18.204100 # 1 UNK
342 1 1 0.000000 19.483601 15.952300 18.201700 # 1 UNK
343 1 1 0.000000 16.749399 20.386499 18.144800 # 1 UNK
344 1 1 0.000000 19.482401 20.377199 18.144400 # 1 UNK
345 1 1 0.000000 6.417750 3.402630 24.106100 # 1 UNK
346 1 1 0.000000 4.174810 7.782540 24.071699 # 1 UNK
347 1 1 0.000000 8.638410 7.736280 24.095100 # 1 UNK
348 1 1 0.000000 24.041201 0.522020 15.235400 # 1 UNK
349 1 1 0.000000 24.028999 2.770450 13.693600 # 1 UNK
350 1 1 0.000000 24.036800 2.710080 22.651600 # 1 UNK
351 1 1 0.000000 18.148001 3.401790 24.061100 # 1 UNK
352 1 1 0.000000 15.947700 7.702890 24.077801 # 1 UNK
353 1 1 0.000000 20.370399 7.709940 24.029699 # 1 UNK
354 1 1 0.000000 0.525822 24.048401 21.055799 # 1 UNK
355 1 1 0.000000 2.769280 24.054899 16.763901 # 1 UNK
356 1 1 0.000000 10.077600 24.056601 16.758801 # 1 UNK
357 1 1 0.000000 6.399090 15.232900 24.052700 # 1 UNK
358 1 1 0.000000 4.180120 19.548800 24.019100 # 1 UNK
359 1 1 0.000000 8.618150 19.576799 24.084999 # 1 UNK
360 1 1 0.000000 24.052099 12.279600 15.324200 # 1 UNK
361 1 1 0.000000 24.057699 14.473200 13.703800 # 1 UNK
362 1 1 0.000000 24.065599 14.535600 22.652399 # 1 UNK
363 1 1 0.000000 12.273500 24.059999 21.116899 # 1 UNK
364 1 1 0.000000 14.475200 24.046600 16.755400 # 1 UNK
365 1 1 0.000000 21.795401 24.038401 16.760401 # 1 UNK
366 1 1 0.000000 18.166401 15.285000 24.049500 # 1 UNK
367 1 1 0.000000 15.926700 19.585899 24.074900 # 1 UNK
368 1 1 0.000000 20.399599 19.591400 24.027000 # 1 UNK
369 1 1 0.000000 35.872700 0.514448 3.544340 # 1 UNK
370 1 1 0.000000 35.898800 2.705280 1.919160 # 1 UNK
371 1 1 0.000000 35.899502 2.768200 10.878200 # 1 UNK
372 1 1 0.000000 35.837502 10.024600 1.920740 # 1 UNK
373 1 1 0.000000 35.851898 10.056200 10.883000 # 1 UNK
374 1 1 0.000000 41.779900 9.220880 0.523301 # 1 UNK
375 1 1 0.000000 41.733799 1.766350 2.639940 # 1 UNK
376 1 1 0.000000 41.758801 10.857300 2.708870 # 1 UNK
377 1 1 0.000000 41.912102 1.898680 9.927740 # 1 UNK
378 1 1 0.000000 41.784302 10.832200 10.067800 # 1 UNK
379 1 1 0.000000 39.578201 5.011440 0.522710 # 1 UNK
380 1 1 0.000000 38.118500 0.539369 7.758120 # 1 UNK
381 1 1 0.000000 38.069401 4.206890 2.673780 # 1 UNK
382 1 1 0.000000 38.078999 4.251400 10.108800 # 1 UNK
383 1 1 0.000000 37.991199 8.517960 2.703750 # 1 UNK
384 1 1 0.000000 38.008099 8.553790 10.094900 # 1 UNK
385 1 1 0.000000 39.677799 2.646390 4.242400 # 1 UNK
386 1 1 0.000000 39.597000 10.117400 4.230510 # 1 UNK
387 1 1 0.000000 39.666000 2.671100 8.537890 # 1 UNK
388 1 1 0.000000 39.624500 10.109700 8.533680 # 1 UNK
389 1 1 0.000000 44.148998 4.768830 0.329181 # 1 UNK
390 1 1 0.000000 45.246201 0.052885 6.906240 # 1 UNK
391 1 1 0.000000 45.597301 4.014800 2.547740 # 1 UNK
392 1 1 0.000000 45.698799 3.709630 9.989310 # 1 UNK
393 1 1 0.000000 45.410999 8.372250 2.628590 # 1 UNK
394 1 1 0.000000 45.414001 8.341570 10.104600 # 1 UNK
395 1 1 0.000000 43.849602 2.651310 4.157070 # 1 UNK
396 1 1 0.000000 43.894699 10.010000 4.213850 # 1 UNK
397 1 1 0.000000 44.144402 2.186860 8.324900 # 1 UNK
398 1 1 0.000000 43.912102 10.009400 8.534820 # 1 UNK
399 1 1 0.000000 38.849098 6.343440 6.388320 # 1 UNK
400 1 1 0.000000 44.719101 6.295000 6.403250 # 1 UNK
401 1 1 0.000000 37.246300 6.386300 8.594960 # 1 UNK
402 1 1 0.000000 46.191898 6.104100 8.698470 # 1 UNK
403 1 1 0.000000 37.235699 6.338840 4.189480 # 1 UNK
404 1 1 0.000000 46.202202 6.192200 4.114130 # 1 UNK
405 1 1 0.000000 40.497002 4.165990 6.382600 # 1 UNK
406 1 1 0.000000 43.231800 4.004280 6.463140 # 1 UNK
407 1 1 0.000000 40.384998 8.598520 6.373910 # 1 UNK
408 1 1 0.000000 43.118198 8.505390 6.376500 # 1 UNK
409 1 1 0.000000 24.055401 12.279300 9.337790 # 1 UNK
410 1 1 0.000000 26.268101 12.274000 4.987980 # 1 UNK
411 1 1 0.000000 33.577202 12.250400 4.992100 # 1 UNK
412 1 1 0.000000 24.057199 21.868700 1.847810 # 1 UNK
413 1 1 0.000000 24.053600 21.790100 10.966400 # 1 UNK
414 1 1 0.000000 29.946199 21.158899 0.523646 # 1 UNK
415 1 1 0.000000 29.930300 13.630000 2.714710 # 1 UNK
416 1 1 0.000000 29.915501 22.690800 2.778650 # 1 UNK
417 1 1 0.000000 29.920500 13.620900 10.038300 # 1 UNK
418 1 1 0.000000 29.920500 22.676800 10.106300 # 1 UNK
419 1 1 0.000000 27.741199 16.859800 0.502331 # 1 UNK
420 1 1 0.000000 26.250700 12.275400 7.720200 # 1 UNK
421 1 1 0.000000 26.222200 16.058701 2.644610 # 1 UNK
422 1 1 0.000000 26.205200 15.964700 10.157300 # 1 UNK
423 1 1 0.000000 26.204500 20.362600 2.658620 # 1 UNK
424 1 1 0.000000 26.202101 20.272200 10.180800 # 1 UNK
425 1 1 0.000000 27.771099 14.433800 4.207070 # 1 UNK
426 1 1 0.000000 27.760300 21.911699 4.289370 # 1 UNK
427 1 1 0.000000 27.767099 14.415200 8.532250 # 1 UNK
428 1 1 0.000000 27.757401 21.885799 8.613640 # 1 UNK
429 1 1 0.000000 32.168499 16.841600 0.545770 # 1 UNK
430 1 1 0.000000 33.590801 12.248800 7.723910 # 1 UNK
431 1 1 0.000000 33.668701 16.034000 2.698540 # 1 UNK
432 1 1 0.000000 33.680401 15.947200 10.093100 # 1 UNK
433 1 1 0.000000 33.659698 20.343500 2.725290 # 1 UNK
434 1 1 0.000000 33.664700 20.265900 10.121900 # 1 UNK
435 1 1 0.000000 32.078400 14.420300 4.230770 # 1 UNK
436 1 1 0.000000 32.060699 21.904499 4.302060 # 1 UNK
437 1 1 0.000000 32.072399 14.394300 8.517240 # 1 UNK
438 1 1 0.000000 32.069801 21.879999 8.595350 # 1 UNK
439 1 1 0.000000 26.975599 18.158600 6.410450 # 1 UNK
440 1 1 0.000000 32.846298 18.154600 6.415080 # 1 UNK
441 1 1 0.000000 25.426901 18.125700 8.654140 # 1 UNK
442 1 1 0.000000 34.465698 18.119101 8.609510 # 1 UNK
443 1 1 0.000000 25.429600 18.202900 4.165100 # 1 UNK
444 1 1 0.000000 34.459099 18.181801 4.215330 # 1 UNK
445 1 1 0.000000 28.544201 15.928200 6.376530 # 1 UNK
446 1 1 0.000000 31.277000 15.925500 6.381710 # 1 UNK
447 1 1 0.000000 28.534599 20.395800 6.443430 # 1 UNK
448 1 1 0.000000 31.267599 20.377701 6.442160 # 1 UNK
449 1 1 0.000000 24.049299 10.028200 1.857470 # 1 UNK
450 1 1 0.000000 24.043100 10.096200 10.971900 # 1 UNK
451 1 1 0.000000 29.952299 9.277930 0.521127 # 1 UNK
452 1 1 0.000000 29.924601 1.906980 2.775260 # 1 UNK
453 1 1 0.000000 29.926800 10.897500 2.715310 # 1 UNK
454 1 1 0.000000 29.920601 1.919230 10.088800 # 1 UNK
455 1 1 0.000000 29.916700 10.888100 10.035800 # 1 UNK
456 1 1 0.000000 27.715700 4.988940 0.486256 # 1 UNK
457 1 1 0.000000 26.259501 0.537090 7.826830 # 1 UNK
458 1 1 0.000000 26.200199 4.210150 2.638480 # 1 UNK
459 1 1 0.000000 26.182800 4.293280 10.176100 # 1 UNK
460 1 1 0.000000 26.196699 8.506910 2.636670 # 1 UNK
461 1 1 0.000000 26.187300 8.585740 10.163000 # 1 UNK
462 1 1 0.000000 27.760900 2.676200 4.278580 # 1 UNK
463 1 1 0.000000 27.761299 10.108700 4.205470 # 1 UNK
464 1 1 0.000000 27.753901 2.704880 8.600170 # 1 UNK
465 1 1 0.000000 27.751900 10.124300 8.531260 # 1 UNK
466 1 1 0.000000 32.215199 4.969800 0.554457 # 1 UNK
467 1 1 0.000000 33.582298 0.559975 7.808070 # 1 UNK
468 1 1 0.000000 33.727299 4.188540 2.707540 # 1 UNK
469 1 1 0.000000 33.723499 4.260770 10.116200 # 1 UNK
470 1 1 0.000000 33.686901 8.503860 2.694210 # 1 UNK
471 1 1 0.000000 33.694500 8.556900 10.087200 # 1 UNK
472 1 1 0.000000 32.084301 2.675960 4.285860 # 1 UNK
473 1 1 0.000000 32.070000 10.089000 4.227280 # 1 UNK
474 1 1 0.000000 32.070702 2.715160 8.580750 # 1 UNK
475 1 1 0.000000 32.071602 10.107300 8.524190 # 1 UNK
476 1 1 0.000000 26.943199 6.402750 6.406220 # 1 UNK
477 1 1 0.000000 32.890301 6.397420 6.399960 # 1 UNK
478 1 1 0.000000 25.396500 6.435920 8.650440 # 1 UNK
479 1 1 0.000000 34.513500 6.403950 8.592440 # 1 UNK
480 1 1 0.000000 25.409901 6.358790 4.152980 # 1 UNK
481 1 1 0.000000 34.502899 6.358320 4.200550 # 1 UNK
482 1 1 0.000000 28.538601 4.191490 6.431180 # 1 UNK
483 1 1 0.000000 31.270800 4.203250 6.417460 # 1 UNK
484 1 1 0.000000 28.534700 8.616830 6.375210 # 1 UNK
485 1 1 0.000000 31.267401 8.589390 6.381960 # 1 UNK
486 1 1 0.000000 29.947599 3.531860 12.287300 # 1 UNK
487 1 1 0.000000 27.698200 7.812040 12.319800 # 1 UNK
488 1 1 0.000000 32.191502 7.796680 12.254800 # 1 UNK
489 1 1 0.000000 24.044901 10.085900 13.703800 # 1 UNK
490 1 1 0.000000 24.039499 10.024600 22.649599 # 1 UNK
491 1 1 0.000000 29.949900 9.349280 12.286300 # 1 UNK
492 1 1 0.000000 29.969299 1.909350 14.478700 # 1 UNK
493 1 1 0.000000 29.977600 10.893500 14.533400 # 1 UNK
494 1 1 0.000000 29.980600 1.913060 21.789900 # 1 UNK
495 1 1 0.000000 29.972500 10.895000 21.855400 # 1 UNK
496 1 1 0.000000 27.704500 5.079650 12.320900 # 1 UNK
497 1 1 0.000000 26.298800 0.539854 19.485701 # 1 UNK
498 1 1 0.000000 26.187201 4.280700 14.464500 # 1 UNK
499 1 1 0.000000 26.197701 4.206290 21.861000 # 1 UNK
500 1 1 0.000000 26.204100 8.584900 14.487600 # 1 UNK
501 1 1 0.000000 26.198400 8.514350 21.879601 # 1 UNK
502 1 1 0.000000 27.813900 2.693860 15.985400 # 1 UNK
503 1 1 0.000000 27.827801 10.125800 16.058001 # 1 UNK
504 1 1 0.000000 27.823299 2.680950 20.277201 # 1 UNK
505 1 1 0.000000 27.817101 10.103100 20.351900 # 1 UNK
506 1 1 0.000000 32.201302 5.063960 12.254300 # 1 UNK
507 1 1 0.000000 33.653702 0.529978 19.474400 # 1 UNK
508 1 1 0.000000 33.729198 4.267370 14.391500 # 1 UNK
509 1 1 0.000000 33.732201 4.206280 21.902700 # 1 UNK
510 1 1 0.000000 33.700199 8.554900 14.420100 # 1 UNK
511 1 1 0.000000 33.710201 8.488260 21.908400 # 1 UNK
512 1 1 0.000000 32.141102 2.691160 15.963500 # 1 UNK
513 1 1 0.000000 32.137199 10.111300 16.037100 # 1 UNK
514 1 1 0.000000 32.145100 2.675900 20.285000 # 1 UNK
515 1 1 0.000000 32.131199 10.096200 20.359900 # 1 UNK
516 1 1 0.000000 27.018499 6.397440 18.172400 # 1 UNK
517 1 1 0.000000 32.956402 6.394580 18.160801 # 1 UNK
518 1 1 0.000000 25.400700 6.366640 20.367300 # 1 UNK
519 1 1 0.000000 34.531101 6.353350 20.388300 # 1 UNK
520 1 1 0.000000 25.396700 6.428230 15.980400 # 1 UNK
521 1 1 0.000000 34.516602 6.407340 15.923200 # 1 UNK
522 1 1 0.000000 28.627001 4.196250 18.134001 # 1 UNK
523 1 1 0.000000 31.359200 4.183910 18.130301 # 1 UNK
524 1 1 0.000000 28.622000 8.602500 18.199200 # 1 UNK
525 1 1 0.000000 31.354500 8.601820 18.192499 # 1 UNK
526 1 1 0.000000 1.491780 0.016910 3.776990 # 1 UNK
527 1 1 0.000000 0.400961 1.985610 2.174320 # 1 UNK
528 1 1 0.000000 0.829647 2.498880 11.126300 # 1 UNK
529 1 1 0.000000 35.838600 12.252900 9.266040 # 1 UNK
530 1 1 0.000000 38.084599 12.269600 5.013940 # 1 UNK
531 1 1 0.000000 45.379700 12.184000 4.997410 # 1 UNK
532 1 1 0.000000 35.838200 12.268100 3.469350 # 1 UNK
533 1 1 0.000000 35.833599 14.526100 1.940960 # 1 UNK
534 1 1 0.000000 35.841202 14.449800 10.882400 # 1 UNK
535 1 1 0.000000 35.825100 21.835199 1.939150 # 1 UNK
536 1 1 0.000000 35.827301 21.772100 10.888400 # 1 UNK
537 1 1 0.000000 41.702801 21.144400 0.529597 # 1 UNK
538 1 1 0.000000 41.742100 13.591300 2.725480 # 1 UNK
539 1 1 0.000000 41.738899 22.672001 2.787890 # 1 UNK
540 1 1 0.000000 41.761501 13.567500 10.049400 # 1 UNK
541 1 1 0.000000 41.736698 22.667999 10.098900 # 1 UNK
542 1 1 0.000000 39.502300 16.829300 0.556660 # 1 UNK
543 1 1 0.000000 38.101002 12.252100 7.745920 # 1 UNK
544 1 1 0.000000 37.995399 16.032700 2.709000 # 1 UNK
545 1 1 0.000000 38.003399 15.947700 10.097900 # 1 UNK
546 1 1 0.000000 37.984402 20.337200 2.730740 # 1 UNK
547 1 1 0.000000 37.987202 20.262100 10.122300 # 1 UNK
548 1 1 0.000000 39.598598 14.420100 4.228340 # 1 UNK
549 1 1 0.000000 39.587601 21.894100 4.307100 # 1 UNK
550 1 1 0.000000 39.624901 14.395600 8.535500 # 1 UNK
551 1 1 0.000000 39.581902 21.874399 8.593940 # 1 UNK
552 1 1 0.000000 43.909000 16.826700 0.512386 # 1 UNK
553 1 1 0.000000 45.388500 12.182500 7.731930 # 1 UNK
554 1 1 0.000000 45.435600 16.015400 2.645750 # 1 UNK
555 1 1 0.000000 45.445999 15.929900 10.156900 # 1 UNK
556 1 1 0.000000 45.430801 20.334900 2.660300 # 1 UNK
557 1 1 0.000000 45.448101 20.251801 10.175000 # 1 UNK
558 1 1 0.000000 43.914299 14.370200 4.213610 # 1 UNK
559 1 1 0.000000 43.890598 21.888300 4.302210 # 1 UNK
560 1 1 0.000000 43.910599 14.355000 8.531300 # 1 UNK
561 1 1 0.000000 43.901199 21.874800 8.608380 # 1 UNK
562 1 1 0.000000 38.817200 18.129101 6.416300 # 1 UNK
563 1 1 0.000000 44.668400 18.128099 6.413390 # 1 UNK
564 1 1 0.000000 37.198299 18.110300 8.611130 # 1 UNK
565 1 1 0.000000 46.216301 18.096300 8.657400 # 1 UNK
566 1 1 0.000000 37.192200 18.175699 4.225580 # 1 UNK
567 1 1 0.000000 46.204700 18.171301 4.161770 # 1 UNK
568 1 1 0.000000 40.406799 15.914100 6.385200 # 1 UNK
569 1 1 0.000000 43.139400 15.871400 6.376420 # 1 UNK
570 1 1 0.000000 40.380001 20.364500 6.445000 # 1 UNK
571 1 1 0.000000 43.113499 20.368401 6.452420 # 1 UNK
572 1 1 0.000000 41.815102 3.430730 12.192400 # 1 UNK
573 1 1 0.000000 39.488300 7.780500 12.267600 # 1 UNK
574 1 1 0.000000 43.913101 7.470230 12.247600 # 1 UNK
575 1 1 0.000000 35.877499 0.542971 15.160600 # 1 UNK
576 1 1 0.000000 35.907799 2.788130 13.612400 # 1 UNK
577 1 1 0.000000 35.917801 2.736060 22.679899 # 1 UNK
578 1 1 0.000000 35.852600 10.058400 13.615900 # 1 UNK
579 1 1 0.000000 35.862400 10.003400 22.689100 # 1 UNK
580 1 1 0.000000 41.808701 9.224570 12.277400 # 1 UNK
581 1 1 0.000000 41.781898 1.897110 14.453400 # 1 UNK
582 1 1 0.000000 41.733898 10.841600 14.479400 # 1 UNK
583 1 1 0.000000 41.957401 1.891380 21.694300 # 1 UNK
584 1 1 0.000000 41.750000 10.831600 21.852301 # 1 UNK
585 1 1 0.000000 39.611401 5.044320 12.248600 # 1 UNK
586 1 1 0.000000 38.112701 0.588962 19.479799 # 1 UNK
587 1 1 0.000000 38.082699 4.270720 14.400100 # 1 UNK
588 1 1 0.000000 38.104000 4.197350 21.884100 # 1 UNK
589 1 1 0.000000 37.988602 8.540160 14.433400 # 1 UNK
590 1 1 0.000000 37.998100 8.477740 21.888100 # 1 UNK
591 1 1 0.000000 39.666100 2.716310 16.005899 # 1 UNK
592 1 1 0.000000 39.571899 10.115400 16.011299 # 1 UNK
593 1 1 0.000000 39.720699 2.669030 20.287201 # 1 UNK
594 1 1 0.000000 39.584000 10.080200 20.341999 # 1 UNK
595 1 1 0.000000 44.221600 4.736140 12.099800 # 1 UNK
596 1 1 0.000000 45.492500 0.063153 19.026100 # 1 UNK
597 1 1 0.000000 45.621300 4.029650 14.362300 # 1 UNK
598 1 1 0.000000 45.858398 3.766440 21.875799 # 1 UNK
599 1 1 0.000000 45.371700 8.405050 14.391500 # 1 UNK
600 1 1 0.000000 45.415199 8.346030 21.868799 # 1 UNK
601 1 1 0.000000 44.016800 2.471970 15.949400 # 1 UNK
602 1 1 0.000000 43.847900 9.994670 16.019800 # 1 UNK
603 1 1 0.000000 44.310398 2.204600 20.275600 # 1 UNK
604 1 1 0.000000 43.859699 9.975970 20.312401 # 1 UNK
605 1 1 0.000000 38.883400 6.289150 18.149900 # 1 UNK
606 1 1 0.000000 44.668598 6.229510 18.177401 # 1 UNK
607 1 1 0.000000 37.266499 6.321200 20.353001 # 1 UNK
608 1 1 0.000000 46.184898 6.112620 20.453100 # 1 UNK
609 1 1 0.000000 37.251701 6.378300 15.958500 # 1 UNK
610 1 1 0.000000 46.173500 6.247530 15.895100 # 1 UNK
611 1 1 0.000000 40.613800 4.165230 18.150600 # 1 UNK
612 1 1 0.000000 43.346199 3.830170 18.247200 # 1 UNK
613 1 1 0.000000 40.342201 8.599890 18.163200 # 1 UNK
614 1 1 0.000000 43.077099 8.451630 18.161800 # 1 UNK
615 1 1 0.000000 24.049999 24.047100 9.437840 # 1 UNK
616 1 1 0.000000 26.245001 24.052200 5.101290 # 1 UNK
617 1 1 0.000000 33.580399 24.048599 5.096150 # 1 UNK
618 1 1 0.000000 29.945499 15.163300 12.286300 # 1 UNK
619 1 1 0.000000 27.724800 19.469900 12.319600 # 1 UNK
620 1 1 0.000000 32.158401 19.459600 12.271000 # 1 UNK
621 1 1 0.000000 24.054300 12.281000 21.119101 # 1 UNK
622 1 1 0.000000 26.307501 12.268000 16.854601 # 1 UNK
623 1 1 0.000000 33.644001 12.258600 16.848101 # 1 UNK
624 1 1 0.000000 24.057301 21.792000 13.698500 # 1 UNK
625 1 1 0.000000 24.056700 21.855801 22.643700 # 1 UNK
626 1 1 0.000000 29.945400 21.052500 12.297400 # 1 UNK
627 1 1 0.000000 29.977900 13.626200 14.537700 # 1 UNK
628 1 1 0.000000 29.960699 22.685801 14.481800 # 1 UNK
629 1 1 0.000000 29.969200 13.627800 21.861099 # 1 UNK
630 1 1 0.000000 29.973301 22.684401 21.796301 # 1 UNK
631 1 1 0.000000 27.717899 16.736700 12.315000 # 1 UNK
632 1 1 0.000000 26.309799 12.264800 19.587000 # 1 UNK
633 1 1 0.000000 26.225000 15.965000 14.485500 # 1 UNK
634 1 1 0.000000 26.226400 16.043501 21.883101 # 1 UNK
635 1 1 0.000000 26.216499 20.281200 14.465100 # 1 UNK
636 1 1 0.000000 26.218100 20.359100 21.855700 # 1 UNK
637 1 1 0.000000 27.831301 14.409500 16.059999 # 1 UNK
638 1 1 0.000000 27.809299 21.896000 15.993000 # 1 UNK
639 1 1 0.000000 27.817200 14.426700 20.354700 # 1 UNK
640 1 1 0.000000 27.821800 21.911301 20.275299 # 1 UNK
641 1 1 0.000000 32.179798 16.726801 12.255400 # 1 UNK
642 1 1 0.000000 33.633400 12.256800 19.580900 # 1 UNK
643 1 1 0.000000 33.685398 15.954300 14.417300 # 1 UNK
644 1 1 0.000000 33.700199 16.028500 21.932400 # 1 UNK
645 1 1 0.000000 33.681499 20.252300 14.414000 # 1 UNK
646 1 1 0.000000 33.684502 20.335699 21.909599 # 1 UNK
647 1 1 0.000000 32.130100 14.407700 16.052299 # 1 UNK
648 1 1 0.000000 32.125099 21.879601 15.966500 # 1 UNK
649 1 1 0.000000 32.135101 14.417600 20.371099 # 1 UNK
650 1 1 0.000000 32.128201 21.896400 20.289301 # 1 UNK
651 1 1 0.000000 27.043301 18.156799 18.172899 # 1 UNK
652 1 1 0.000000 32.917702 18.151400 18.171801 # 1 UNK
653 1 1 0.000000 25.427799 18.190901 20.370199 # 1 UNK
654 1 1 0.000000 34.477100 18.177601 20.408899 # 1 UNK
655 1 1 0.000000 25.428699 18.128300 15.975300 # 1 UNK
656 1 1 0.000000 34.472000 18.105200 15.931700 # 1 UNK
657 1 1 0.000000 28.620199 15.932600 18.204201 # 1 UNK
658 1 1 0.000000 31.353100 15.918200 18.209299 # 1 UNK
659 1 1 0.000000 28.616600 20.383600 18.136999 # 1 UNK
660 1 1 0.000000 31.350000 20.382900 18.134001 # 1 UNK
661 1 1 0.000000 0.512153 12.209600 3.358310 # 1 UNK
662 1 1 0.000000 0.523238 14.484400 1.854760 # 1 UNK
663 1 1 0.000000 0.534095 14.404100 10.958300 # 1 UNK
664 1 1 0.000000 35.826401 24.033800 9.366290 # 1 UNK
665 1 1 0.000000 38.066898 24.041000 5.090970 # 1 UNK
666 1 1 0.000000 45.396500 24.043100 5.095280 # 1 UNK
667 1 1 0.000000 41.719501 15.130400 12.285200 # 1 UNK
668 1 1 0.000000 39.501701 19.452900 12.264100 # 1 UNK
669 1 1 0.000000 43.925598 19.444401 12.313300 # 1 UNK
670 1 1 0.000000 35.850899 12.266100 21.168600 # 1 UNK
671 1 1 0.000000 38.048100 12.243400 16.842800 # 1 UNK
672 1 1 0.000000 45.333099 12.167200 16.811300 # 1 UNK
673 1 1 0.000000 35.843899 12.252200 15.236500 # 1 UNK
674 1 1 0.000000 35.834599 14.444700 13.614600 # 1 UNK
675 1 1 0.000000 35.851898 14.512100 22.714300 # 1 UNK
676 1 1 0.000000 35.827202 21.770800 13.620900 # 1 UNK
677 1 1 0.000000 35.831902 21.841000 22.722099 # 1 UNK
678 1 1 0.000000 41.716400 21.043301 12.289500 # 1 UNK
679 1 1 0.000000 41.703602 13.576700 14.527600 # 1 UNK
680 1 1 0.000000 41.696201 22.669800 14.479000 # 1 UNK
681 1 1 0.000000 41.716000 13.566300 21.848200 # 1 UNK
682 1 1 0.000000 41.682499 22.669800 21.798000 # 1 UNK
683 1 1 0.000000 39.502800 16.719999 12.263500 # 1 UNK
684 1 1 0.000000 38.064800 12.233600 19.575600 # 1 UNK
685 1 1 0.000000 37.989101 15.944900 14.419300 # 1 UNK
686 1 1 0.000000 38.002399 16.023899 21.922100 # 1 UNK
687 1 1 0.000000 37.977299 20.252800 14.402600 # 1 UNK
688 1 1 0.000000 37.979599 20.330900 21.918900 # 1 UNK
689 1 1 0.000000 39.556599 14.390200 16.034000 # 1 UNK
690 1 1 0.000000 39.528500 21.875799 15.964200 # 1 UNK
691 1 1 0.000000 39.557301 14.397300 20.367100 # 1 UNK
692 1 1 0.000000 39.527699 21.887600 20.288000 # 1 UNK
693 1 1 0.000000 43.942799 16.711201 12.317900 # 1 UNK
694 1 1 0.000000 45.335300 12.163200 19.546301 # 1 UNK
695 1 1 0.000000 45.441502 15.935800 14.483800 # 1 UNK
696 1 1 0.000000 45.433300 15.982600 21.871500 # 1 UNK
697 1 1 0.000000 45.430199 20.261600 14.460000 # 1 UNK
698 1 1 0.000000 45.424702 20.311800 21.843901 # 1 UNK
699 1 1 0.000000 43.854000 14.353200 16.050400 # 1 UNK
700 1 1 0.000000 43.841400 21.873100 15.996100 # 1 UNK
701 1 1 0.000000 43.869400 14.348800 20.333000 # 1 UNK
702 1 1 0.000000 43.828999 21.884899 20.275200 # 1 UNK
703 1 1 0.000000 38.761398 18.128000 18.164400 # 1 UNK
704 1 1 0.000000 44.598099 18.122101 18.165300 # 1 UNK
705 1 1 0.000000 37.210300 18.172300 20.407000 # 1 UNK
706 1 1 0.000000 46.213501 18.139400 20.362801 # 1 UNK
707 1 1 0.000000 37.204899 18.103001 15.925300 # 1 UNK
708 1 1 0.000000 46.216999 18.109100 15.970600 # 1 UNK
709 1 1 0.000000 40.327499 15.894900 18.198200 # 1 UNK
710 1 1 0.000000 43.061100 15.870900 18.196100 # 1 UNK
711 1 1 0.000000 40.301899 20.378000 18.130100 # 1 UNK
712 1 1 0.000000 43.035000 20.356001 18.137199 # 1 UNK
713 1 1 0.000000 29.960699 3.445760 24.044399 # 1 UNK
714 1 1 0.000000 27.718300 7.713550 24.020300 # 1 UNK
715 1 1 0.000000 32.192699 7.701890 24.057400 # 1 UNK
716 1 1 0.000000 1.201190 46.881100 15.138300 # 1 UNK
717 1 1 0.000000 0.684145 2.298410 13.867800 # 1 UNK
718 1 1 0.000000 0.956048 2.601600 23.127300 # 1 UNK
719 1 1 0.000000 41.849201 3.392450 23.979300 # 1 UNK
720 1 1 0.000000 39.506500 7.719780 24.048800 # 1 UNK
721 1 1 0.000000 43.923901 7.463670 24.013300 # 1 UNK
722 1 1 0.000000 24.051701 24.052999 21.027700 # 1 UNK
723 1 1 0.000000 26.306700 24.062700 16.756300 # 1 UNK
724 1 1 0.000000 33.628399 24.037600 16.751600 # 1 UNK
725 1 1 0.000000 29.948799 15.259600 24.047001 # 1 UNK
726 1 1 0.000000 27.713100 19.587799 24.024599 # 1 UNK
727 1 1 0.000000 32.172401 19.569300 24.070200 # 1 UNK
728 1 1 0.000000 0.506060 12.163700 15.228800 # 1 UNK
729 1 1 0.000000 0.538689 14.419400 13.692700 # 1 UNK
730 1 1 0.000000 0.538455 14.468500 22.646799 # 1 UNK
731 1 1 0.000000 35.829601 24.040199 21.109400 # 1 UNK
732 1 1 0.000000 38.029400 24.035900 16.750500 # 1 UNK
733 1 1 0.000000 45.336498 24.042999 16.765900 # 1 UNK
734 1 1 0.000000 41.712601 15.203200 24.033100 # 1 UNK
735 1 1 0.000000 39.487499 19.558500 24.079300 # 1 UNK
736 1 1 0.000000 43.923901 19.533300 24.007900 # 1 UNK
737 1 1 0.000000 12.278500 24.062901 3.549170 # 1 UNK
738 1 1 0.000000 12.279800 26.262400 1.936520 # 1 UNK
739 1 1 0.000000 12.280300 26.315800 10.885900 # 1 UNK
740 1 1 0.000000 12.264500 33.584499 1.931820 # 1 UNK
741 1 1 0.000000 12.275800 33.631001 10.884100 # 1 UNK
742 1 1 0.000000 18.155100 32.846901 0.527783 # 1 UNK
743 1 1 0.000000 18.187201 25.417101 2.779020 # 1 UNK
744 1 1 0.000000 18.169500 34.476601 2.714990 # 1 UNK
745 1 1 0.000000 18.177500 25.405899 10.105200 # 1 UNK
746 1 1 0.000000 18.186001 34.475101 10.040800 # 1 UNK
747 1 1 0.000000 15.933700 28.533501 0.553231 # 1 UNK
748 1 1 0.000000 14.525700 24.042101 7.823300 # 1 UNK
749 1 1 0.000000 14.441400 27.759600 2.723600 # 1 UNK
750 1 1 0.000000 14.441700 27.823799 10.119700 # 1 UNK
751 1 1 0.000000 14.428000 32.078201 2.695520 # 1 UNK
752 1 1 0.000000 14.440900 32.138802 10.098100 # 1 UNK
753 1 1 0.000000 16.037100 26.194799 4.299590 # 1 UNK
754 1 1 0.000000 16.018600 33.690201 4.229020 # 1 UNK
755 1 1 0.000000 16.030899 26.205000 8.592130 # 1 UNK
756 1 1 0.000000 16.039200 33.695599 8.516790 # 1 UNK
757 1 1 0.000000 20.390499 28.516399 0.501850 # 1 UNK
758 1 1 0.000000 21.844700 24.047400 7.832940 # 1 UNK
759 1 1 0.000000 21.898300 27.742201 2.661450 # 1 UNK
760 1 1 0.000000 21.893000 27.825100 10.180200 # 1 UNK
761 1 1 0.000000 21.885401 32.047901 2.647880 # 1 UNK
762 1 1 0.000000 21.887100 32.133801 10.160800 # 1 UNK
763 1 1 0.000000 20.341499 26.194099 4.292380 # 1 UNK
764 1 1 0.000000 20.333300 33.676102 4.203680 # 1 UNK
765 1 1 0.000000 20.340599 26.205601 8.615640 # 1 UNK
766 1 1 0.000000 20.334700 33.683701 8.527060 # 1 UNK
767 1 1 0.000000 15.260300 29.943001 6.407830 # 1 UNK
768 1 1 0.000000 21.122101 29.941000 6.411960 # 1 UNK
769 1 1 0.000000 13.649600 29.974300 8.608430 # 1 UNK
770 1 1 0.000000 22.668900 29.974100 8.657240 # 1 UNK
771 1 1 0.000000 13.646200 29.925600 4.209720 # 1 UNK
772 1 1 0.000000 22.672300 29.901600 4.169180 # 1 UNK
773 1 1 0.000000 16.831100 27.714899 6.443650 # 1 UNK
774 1 1 0.000000 19.563900 27.703501 6.450010 # 1 UNK
775 1 1 0.000000 16.825899 32.174900 6.371080 # 1 UNK
776 1 1 0.000000 19.558901 32.174999 6.368260 # 1 UNK
777 1 1 0.000000 0.527910 35.860199 9.336080 # 1 UNK
778 1 1 0.000000 2.725410 35.899700 4.975390 # 1 UNK
779 1 1 0.000000 10.015800 35.834301 5.003060 # 1 UNK
780 1 1 0.000000 0.403830 46.309200 1.370190 # 1 UNK
781 1 1 0.000000 0.556101 45.841499 10.315900 # 1 UNK
782 1 1 0.000000 6.199230 44.637199 0.616319 # 1 UNK
783 1 1 0.000000 6.342110 37.261200 2.694980 # 1 UNK
784 1 1 0.000000 6.132090 46.129700 2.916750 # 1 UNK
785 1 1 0.000000 6.339020 37.218399 10.084500 # 1 UNK
786 1 1 0.000000 6.321480 46.236401 10.120100 # 1 UNK
787 1 1 0.000000 4.188220 40.741798 0.580532 # 1 UNK
788 1 1 0.000000 2.718350 35.881100 7.709490 # 1 UNK
789 1 1 0.000000 2.682040 39.766998 2.679990 # 1 UNK
790 1 1 0.000000 2.716360 39.598099 10.211500 # 1 UNK
791 1 1 0.000000 1.893900 44.463001 2.795160 # 1 UNK
792 1 1 0.000000 2.535910 43.908298 10.169900 # 1 UNK
793 1 1 0.000000 4.204430 38.084301 4.211730 # 1 UNK
794 1 1 0.000000 3.817220 45.730499 4.371620 # 1 UNK
795 1 1 0.000000 4.214840 38.029301 8.540590 # 1 UNK
796 1 1 0.000000 4.158690 45.463001 8.606970 # 1 UNK
797 1 1 0.000000 8.609210 40.361099 0.556977 # 1 UNK
798 1 1 0.000000 10.029400 35.828400 7.734910 # 1 UNK
799 1 1 0.000000 10.108000 39.588100 2.716710 # 1 UNK
800 1 1 0.000000 10.110200 39.524101 10.114500 # 1 UNK
801 1 1 0.000000 10.021100 43.871498 2.706530 # 1 UNK
802 1 1 0.000000 10.018600 43.826401 10.154500 # 1 UNK
803 1 1 0.000000 8.497080 37.985401 4.234380 # 1 UNK
804 1 1 0.000000 8.400530 45.403198 4.291170 # 1 UNK
805 1 1 0.000000 8.501780 37.952900 8.560780 # 1 UNK
806 1 1 0.000000 8.429150 45.389900 8.568650 # 1 UNK
807 1 1 0.000000 3.391200 41.751400 6.359990 # 1 UNK
808 1 1 0.000000 9.252540 41.741402 6.427930 # 1 UNK
809 1 1 0.000000 1.909610 41.709999 8.649100 # 1 UNK
810 1 1 0.000000 10.864000 41.704300 8.628810 # 1 UNK
811 1 1 0.000000 1.893910 42.002102 4.087410 # 1 UNK
812 1 1 0.000000 10.867300 41.748299 4.228760 # 1 UNK
813 1 1 0.000000 5.002790 39.551201 6.392780 # 1 UNK
814 1 1 0.000000 7.736780 39.472099 6.409240 # 1 UNK
815 1 1 0.000000 4.826850 44.075401 6.331040 # 1 UNK
816 1 1 0.000000 7.562210 43.888901 6.430830 # 1 UNK
817 1 1 0.000000 0.516670 33.612701 1.850880 # 1 UNK
818 1 1 0.000000 0.517855 33.663101 10.953400 # 1 UNK
819 1 1 0.000000 6.394700 32.896000 0.526712 # 1 UNK
820 1 1 0.000000 6.357140 25.430500 2.780750 # 1 UNK
821 1 1 0.000000 6.366490 34.525600 2.716480 # 1 UNK
822 1 1 0.000000 6.370380 25.434000 10.097000 # 1 UNK
823 1 1 0.000000 6.360740 34.484200 10.043000 # 1 UNK
824 1 1 0.000000 4.182440 28.561701 0.485406 # 1 UNK
825 1 1 0.000000 2.718900 24.055799 7.831100 # 1 UNK
826 1 1 0.000000 2.677160 27.763000 2.638030 # 1 UNK
827 1 1 0.000000 2.660360 27.853701 10.170200 # 1 UNK
828 1 1 0.000000 2.659580 32.089001 2.638940 # 1 UNK
829 1 1 0.000000 2.669590 32.153099 10.161000 # 1 UNK
830 1 1 0.000000 4.205810 26.215401 4.296210 # 1 UNK
831 1 1 0.000000 4.202640 33.718300 4.201970 # 1 UNK
832 1 1 0.000000 4.206830 26.228600 8.605940 # 1 UNK
833 1 1 0.000000 4.203430 33.720100 8.526900 # 1 UNK
834 1 1 0.000000 8.620670 28.549200 0.560196 # 1 UNK
835 1 1 0.000000 10.026500 24.065500 7.822180 # 1 UNK
836 1 1 0.000000 10.118400 27.761101 2.721640 # 1 UNK
837 1 1 0.000000 10.122300 27.830299 10.122900 # 1 UNK
838 1 1 0.000000 10.109800 32.070000 2.704660 # 1 UNK
839 1 1 0.000000 10.115800 32.130798 10.099200 # 1 UNK
840 1 1 0.000000 8.506720 26.214300 4.299650 # 1 UNK
841 1 1 0.000000 8.502940 33.681801 4.221470 # 1 UNK
842 1 1 0.000000 8.521980 26.229300 8.588560 # 1 UNK
843 1 1 0.000000 8.506660 33.686100 8.528270 # 1 UNK
844 1 1 0.000000 3.425530 29.969101 6.399070 # 1 UNK
845 1 1 0.000000 9.295510 29.964701 6.409140 # 1 UNK
846 1 1 0.000000 1.884780 30.002199 8.647530 # 1 UNK
847 1 1 0.000000 10.917000 29.973200 8.602380 # 1 UNK
848 1 1 0.000000 1.896290 29.922199 4.142750 # 1 UNK
849 1 1 0.000000 10.913800 29.922199 4.214480 # 1 UNK
850 1 1 0.000000 4.986000 27.733200 6.446320 # 1 UNK
851 1 1 0.000000 7.718820 27.739799 6.441840 # 1 UNK
852 1 1 0.000000 4.972690 32.213799 6.364730 # 1 UNK
853 1 1 0.000000 7.705580 32.179699 6.376890 # 1 UNK
854 1 1 0.000000 6.395980 27.048901 12.294900 # 1 UNK
855 1 1 0.000000 4.172430 31.376101 12.323000 # 1 UNK
856 1 1 0.000000 8.622860 31.368099 12.272500 # 1 UNK
857 1 1 0.000000 0.525977 33.651699 13.686200 # 1 UNK
858 1 1 0.000000 0.514993 33.616501 22.637501 # 1 UNK
859 1 1 0.000000 6.400640 32.948799 12.296400 # 1 UNK
860 1 1 0.000000 6.417640 25.426500 14.487700 # 1 UNK
861 1 1 0.000000 6.413450 34.503399 14.537600 # 1 UNK
862 1 1 0.000000 6.423880 25.427500 21.809700 # 1 UNK
863 1 1 0.000000 6.401510 34.505798 21.866899 # 1 UNK
864 1 1 0.000000 4.184110 28.643400 12.313800 # 1 UNK
865 1 1 0.000000 2.761810 24.051800 19.495899 # 1 UNK
866 1 1 0.000000 2.678160 27.831699 14.461200 # 1 UNK
867 1 1 0.000000 2.681230 27.775499 21.862101 # 1 UNK
868 1 1 0.000000 2.676340 32.148102 14.491000 # 1 UNK
869 1 1 0.000000 2.674440 32.098701 21.881901 # 1 UNK
870 1 1 0.000000 4.268380 26.223499 15.999200 # 1 UNK
871 1 1 0.000000 4.266190 33.723099 16.062300 # 1 UNK
872 1 1 0.000000 4.272980 26.203400 20.287901 # 1 UNK
873 1 1 0.000000 4.256750 33.715500 20.344999 # 1 UNK
874 1 1 0.000000 8.613070 28.635700 12.269800 # 1 UNK
875 1 1 0.000000 10.083900 24.062599 19.491100 # 1 UNK
876 1 1 0.000000 10.139100 27.833700 14.406600 # 1 UNK
877 1 1 0.000000 10.119400 27.761499 21.940500 # 1 UNK
878 1 1 0.000000 10.132800 32.143501 14.430400 # 1 UNK
879 1 1 0.000000 10.111400 32.059502 21.941000 # 1 UNK
880 1 1 0.000000 8.583480 26.221399 15.974900 # 1 UNK
881 1 1 0.000000 8.562080 33.695499 16.044100 # 1 UNK
882 1 1 0.000000 8.577260 26.211201 20.297400 # 1 UNK
883 1 1 0.000000 8.556840 33.679600 20.379700 # 1 UNK
884 1 1 0.000000 3.504710 29.960501 18.178499 # 1 UNK
885 1 1 0.000000 9.363750 29.955799 18.171301 # 1 UNK
886 1 1 0.000000 1.889750 29.943001 20.375099 # 1 UNK
887 1 1 0.000000 10.900500 29.912201 20.423000 # 1 UNK
888 1 1 0.000000 1.891740 29.980000 15.979000 # 1 UNK
889 1 1 0.000000 10.916000 29.982000 15.930200 # 1 UNK
890 1 1 0.000000 5.071000 27.729500 18.149300 # 1 UNK
891 1 1 0.000000 7.803580 27.719700 18.138300 # 1 UNK
892 1 1 0.000000 5.060430 32.199001 18.202900 # 1 UNK
893 1 1 0.000000 7.793910 32.186199 18.205700 # 1 UNK
894 1 1 0.000000 24.052200 24.053499 3.480110 # 1 UNK
895 1 1 0.000000 24.045799 26.237801 1.847140 # 1 UNK
896 1 1 0.000000 24.038500 26.303699 10.966900 # 1 UNK
897 1 1 0.000000 12.273500 35.837299 9.281770 # 1 UNK
898 1 1 0.000000 14.520000 35.855400 5.003550 # 1 UNK
899 1 1 0.000000 21.836599 35.834400 4.989600 # 1 UNK
900 1 1 0.000000 12.268200 35.836399 3.467800 # 1 UNK
901 1 1 0.000000 12.259600 38.083599 1.925270 # 1 UNK
902 1 1 0.000000 12.268900 38.027000 10.907500 # 1 UNK
903 1 1 0.000000 12.198500 45.361698 1.947470 # 1 UNK
904 1 1 0.000000 12.193100 45.325802 10.905700 # 1 UNK
905 1 1 0.000000 18.153299 44.658699 0.533864 # 1 UNK
906 1 1 0.000000 18.186399 37.208900 2.719100 # 1 UNK
907 1 1 0.000000 18.185699 46.186798 2.791030 # 1 UNK
908 1 1 0.000000 18.183300 37.207802 10.049100 # 1 UNK
909 1 1 0.000000 18.157700 46.187401 10.104800 # 1 UNK
910 1 1 0.000000 15.928500 40.395500 0.549753 # 1 UNK
911 1 1 0.000000 14.517900 35.843800 7.735470 # 1 UNK
912 1 1 0.000000 14.418200 39.594002 2.696990 # 1 UNK
913 1 1 0.000000 14.417800 39.534599 10.106800 # 1 UNK
914 1 1 0.000000 14.388500 43.896400 2.718510 # 1 UNK
915 1 1 0.000000 14.369200 43.840599 10.130900 # 1 UNK
916 1 1 0.000000 16.036100 38.006901 4.227000 # 1 UNK
917 1 1 0.000000 16.021200 45.420799 4.295700 # 1 UNK
918 1 1 0.000000 16.032600 37.988899 8.532130 # 1 UNK
919 1 1 0.000000 16.011600 45.392101 8.590740 # 1 UNK
920 1 1 0.000000 20.399599 40.382599 0.500703 # 1 UNK
921 1 1 0.000000 21.849100 35.827499 7.722080 # 1 UNK
922 1 1 0.000000 21.916700 39.599098 2.649720 # 1 UNK
923 1 1 0.000000 21.908899 39.509701 10.170300 # 1 UNK
924 1 1 0.000000 21.908701 43.891300 2.656900 # 1 UNK
925 1 1 0.000000 21.909700 43.812000 10.186600 # 1 UNK
926 1 1 0.000000 20.343500 38.004200 4.217220 # 1 UNK
927 1 1 0.000000 20.344900 45.417900 4.301110 # 1 UNK
928 1 1 0.000000 20.342800 37.973499 8.537470 # 1 UNK
929 1 1 0.000000 20.330099 45.403900 8.621940 # 1 UNK
930 1 1 0.000000 15.210500 41.700401 6.414180 # 1 UNK
931 1 1 0.000000 21.156200 41.701199 6.417050 # 1 UNK
932 1 1 0.000000 13.597100 41.686298 8.613240 # 1 UNK
933 1 1 0.000000 22.696800 41.665901 8.665510 # 1 UNK
934 1 1 0.000000 13.600400 41.732300 4.212600 # 1 UNK
935 1 1 0.000000 22.702000 41.743900 4.172350 # 1 UNK
936 1 1 0.000000 16.828400 39.505199 6.386220 # 1 UNK
937 1 1 0.000000 19.560801 39.490101 6.387330 # 1 UNK
938 1 1 0.000000 16.823400 43.899200 6.435380 # 1 UNK
939 1 1 0.000000 19.555700 43.908798 6.454020 # 1 UNK
940 1 1 0.000000 18.156900 27.033400 12.294000 # 1 UNK
941 1 1 0.000000 15.934300 31.364401 12.266900 # 1 UNK
942 1 1 0.000000 20.379299 31.359699 12.320600 # 1 UNK
943 1 1 0.000000 12.275100 24.051100 15.143100 # 1 UNK
944 1 1 0.000000 12.283300 26.310699 13.618300 # 1 UNK
945 1 1 0.000000 12.270000 26.252199 22.739401 # 1 UNK
946 1 1 0.000000 12.280200 33.647400 13.615300 # 1 UNK
947 1 1 0.000000 12.251500 33.585400 22.731800 # 1 UNK
948 1 1 0.000000 18.158400 32.942600 12.295400 # 1 UNK
949 1 1 0.000000 18.139500 25.406300 14.483000 # 1 UNK
950 1 1 0.000000 18.127001 34.476799 14.548700 # 1 UNK
951 1 1 0.000000 18.127399 25.417299 21.804899 # 1 UNK
952 1 1 0.000000 18.128901 34.473701 21.869699 # 1 UNK
953 1 1 0.000000 15.947900 28.631599 12.268000 # 1 UNK
954 1 1 0.000000 14.460500 24.055000 19.487600 # 1 UNK
955 1 1 0.000000 14.427400 27.831800 14.409400 # 1 UNK
956 1 1 0.000000 14.418100 27.756100 21.925100 # 1 UNK
957 1 1 0.000000 14.427600 32.141800 14.425900 # 1 UNK
958 1 1 0.000000 14.399800 32.069302 21.940100 # 1 UNK
959 1 1 0.000000 15.976100 26.206800 15.971900 # 1 UNK
960 1 1 0.000000 15.972900 33.696602 16.061199 # 1 UNK
961 1 1 0.000000 15.970900 26.200100 20.297100 # 1 UNK
962 1 1 0.000000 15.966200 33.678398 20.378201 # 1 UNK
963 1 1 0.000000 20.369600 28.626801 12.318900 # 1 UNK
964 1 1 0.000000 21.799400 24.044300 19.492399 # 1 UNK
965 1 1 0.000000 21.878799 27.817400 14.464600 # 1 UNK
966 1 1 0.000000 21.882299 27.740000 21.861500 # 1 UNK
967 1 1 0.000000 21.872999 32.132500 14.490100 # 1 UNK
968 1 1 0.000000 21.870600 32.053600 21.885099 # 1 UNK
969 1 1 0.000000 20.288799 26.201500 15.994500 # 1 UNK
970 1 1 0.000000 20.274599 33.691601 16.069201 # 1 UNK
971 1 1 0.000000 20.277700 26.188601 20.281200 # 1 UNK
972 1 1 0.000000 20.278700 33.673401 20.361099 # 1 UNK
973 1 1 0.000000 15.188900 29.941900 18.179701 # 1 UNK
974 1 1 0.000000 21.054899 29.940800 18.174200 # 1 UNK
975 1 1 0.000000 13.633700 29.914000 20.419600 # 1 UNK
976 1 1 0.000000 22.669600 29.906700 20.372000 # 1 UNK
977 1 1 0.000000 13.648900 29.981400 15.929700 # 1 UNK
978 1 1 0.000000 22.670601 29.967501 15.977000 # 1 UNK
979 1 1 0.000000 16.750200 27.706301 18.137501 # 1 UNK
980 1 1 0.000000 19.483200 27.712799 18.140200 # 1 UNK
981 1 1 0.000000 16.746799 32.179699 18.214800 # 1 UNK
982 1 1 0.000000 19.479799 32.166500 18.209801 # 1 UNK
983 1 1 0.000000 46.563202 1.102490 9.134070 # 1 UNK
984 1 1 0.000000 2.999490 0.890342 5.901080 # 1 UNK
985 1 1 0.000000 9.947630 0.487494 5.065530 # 1 UNK
986 1 1 0.000000 6.326310 38.819199 12.297100 # 1 UNK
987 1 1 0.000000 3.914090 43.281101 12.462700 # 1 UNK
988 1 1 0.000000 8.485680 43.031399 12.294000 # 1 UNK
989 1 1 0.000000 0.548124 35.880100 21.115900 # 1 UNK
990 1 1 0.000000 2.784830 35.905300 16.829599 # 1 UNK
991 1 1 0.000000 10.072100 35.837502 16.861601 # 1 UNK
992 1 1 0.000000 0.157648 45.493801 13.022000 # 1 UNK
993 1 1 0.000000 0.376415 45.770599 22.240801 # 1 UNK
994 1 1 0.000000 6.283340 44.648102 12.345200 # 1 UNK
995 1 1 0.000000 6.396830 37.237598 14.522100 # 1 UNK
996 1 1 0.000000 6.161780 46.170700 14.618600 # 1 UNK
997 1 1 0.000000 6.368160 37.240700 21.900900 # 1 UNK
998 1 1 0.000000 6.328090 46.192299 21.823900 # 1 UNK
999 1 1 0.000000 4.202020 40.547401 12.327500 # 1 UNK
1000 1 1 0.000000 2.791590 35.903801 19.564199 # 1 UNK
1001 1 1 0.000000 2.706310 39.691101 14.478900 # 1 UNK
1002 1 1 0.000000 2.728570 39.688099 21.926001 # 1 UNK
1003 1 1 0.000000 2.211660 44.293499 14.405500 # 1 UNK
1004 1 1 0.000000 2.515220 44.044399 21.880400 # 1 UNK
1005 1 1 0.000000 4.270270 38.079399 16.045401 # 1 UNK
1006 1 1 0.000000 3.778870 45.860100 15.985700 # 1 UNK
1007 1 1 0.000000 4.274010 38.085098 20.332500 # 1 UNK
1008 1 1 0.000000 4.108060 45.621899 20.303200 # 1 UNK
1009 1 1 0.000000 8.624940 40.296200 12.284100 # 1 UNK
1010 1 1 0.000000 10.057400 35.839401 19.593399 # 1 UNK
1011 1 1 0.000000 10.119600 39.550800 14.459300 # 1 UNK
1012 1 1 0.000000 10.107200 39.616901 21.933701 # 1 UNK
1013 1 1 0.000000 10.008700 43.827000 14.440400 # 1 UNK
1014 1 1 0.000000 10.013800 43.896999 21.953800 # 1 UNK
1015 1 1 0.000000 8.553120 37.975899 16.052900 # 1 UNK
1016 1 1 0.000000 8.401320 45.388000 16.014299 # 1 UNK
1017 1 1 0.000000 8.543990 37.981800 20.398899 # 1 UNK
1018 1 1 0.000000 8.456480 45.399700 20.275299 # 1 UNK
1019 1 1 0.000000 3.468730 41.837200 18.103001 # 1 UNK
1020 1 1 0.000000 9.235500 41.789700 18.198601 # 1 UNK
1021 1 1 0.000000 1.944920 41.816002 20.372999 # 1 UNK
1022 1 1 0.000000 10.841600 41.779202 20.408800 # 1 UNK
1023 1 1 0.000000 1.919570 41.948399 15.848800 # 1 UNK
1024 1 1 0.000000 10.840600 41.714500 15.988500 # 1 UNK
1025 1 1 0.000000 5.057420 39.615299 18.186001 # 1 UNK
1026 1 1 0.000000 7.792690 39.469101 18.222700 # 1 UNK
1027 1 1 0.000000 4.771160 44.245899 18.013800 # 1 UNK
1028 1 1 0.000000 7.501990 43.911301 18.161800 # 1 UNK
1029 1 1 0.000000 24.043301 35.818199 3.387010 # 1 UNK
1030 1 1 0.000000 24.056200 38.073002 1.855860 # 1 UNK
1031 1 1 0.000000 24.055401 37.999199 10.973200 # 1 UNK
1032 1 1 0.000000 12.217200 0.497139 9.322610 # 1 UNK
1033 1 1 0.000000 14.488900 0.502910 5.094470 # 1 UNK
1034 1 1 0.000000 21.851299 0.518404 5.104450 # 1 UNK
1035 1 1 0.000000 18.144501 38.746601 12.299700 # 1 UNK
1036 1 1 0.000000 15.882700 43.040901 12.275900 # 1 UNK
1037 1 1 0.000000 20.377800 43.015099 12.320800 # 1 UNK
1038 1 1 0.000000 12.262100 35.838600 21.198500 # 1 UNK
1039 1 1 0.000000 14.461500 35.842701 16.866100 # 1 UNK
1040 1 1 0.000000 21.794901 35.835201 16.863701 # 1 UNK
1041 1 1 0.000000 12.268500 35.833500 15.245500 # 1 UNK
1042 1 1 0.000000 12.256000 38.036800 13.639400 # 1 UNK
1043 1 1 0.000000 12.243700 38.090698 22.733601 # 1 UNK
1044 1 1 0.000000 12.173100 45.316601 13.639200 # 1 UNK
1045 1 1 0.000000 12.189800 45.376999 22.742701 # 1 UNK
1046 1 1 0.000000 18.139000 44.569401 12.299700 # 1 UNK
1047 1 1 0.000000 18.120399 37.209499 14.551500 # 1 UNK
1048 1 1 0.000000 18.111099 46.186901 14.494700 # 1 UNK
1049 1 1 0.000000 18.127001 37.206501 21.871901 # 1 UNK
1050 1 1 0.000000 18.112200 46.190102 21.807600 # 1 UNK
1051 1 1 0.000000 15.909300 40.308399 12.277200 # 1 UNK
1052 1 1 0.000000 14.470300 35.844799 19.598499 # 1 UNK
1053 1 1 0.000000 14.400600 39.550598 14.442600 # 1 UNK
1054 1 1 0.000000 14.390100 39.607899 21.940201 # 1 UNK
1055 1 1 0.000000 14.352200 43.834702 14.412000 # 1 UNK
1056 1 1 0.000000 14.362000 43.901600 21.937300 # 1 UNK
1057 1 1 0.000000 15.964300 37.993401 16.057899 # 1 UNK
1058 1 1 0.000000 15.942300 45.408401 15.984400 # 1 UNK
1059 1 1 0.000000 15.966500 38.008301 20.380400 # 1 UNK
1060 1 1 0.000000 15.945300 45.423599 20.307699 # 1 UNK
1061 1 1 0.000000 20.397100 40.282799 12.326400 # 1 UNK
1062 1 1 0.000000 21.788601 35.834400 19.595900 # 1 UNK
1063 1 1 0.000000 21.894400 39.514801 14.493700 # 1 UNK
1064 1 1 0.000000 21.904600 39.583000 21.889400 # 1 UNK
1065 1 1 0.000000 21.893000 43.817200 14.464500 # 1 UNK
1066 1 1 0.000000 21.899099 43.893398 21.866400 # 1 UNK
1067 1 1 0.000000 20.273701 37.978001 16.071100 # 1 UNK
1068 1 1 0.000000 20.270901 45.400101 15.994700 # 1 UNK
1069 1 1 0.000000 20.281799 37.995098 20.365200 # 1 UNK
1070 1 1 0.000000 20.264999 45.417702 20.290001 # 1 UNK
1071 1 1 0.000000 15.134800 41.704899 18.185699 # 1 UNK
1072 1 1 0.000000 21.077999 41.704700 18.180099 # 1 UNK
1073 1 1 0.000000 13.576600 41.748199 20.424200 # 1 UNK
1074 1 1 0.000000 22.696100 41.731499 20.374901 # 1 UNK
1075 1 1 0.000000 13.575300 41.693501 15.947500 # 1 UNK
1076 1 1 0.000000 22.694700 41.675800 15.984100 # 1 UNK
1077 1 1 0.000000 16.744499 39.503201 18.213800 # 1 UNK
1078 1 1 0.000000 19.476999 39.497700 18.213800 # 1 UNK
1079 1 1 0.000000 16.729200 43.917702 18.150499 # 1 UNK
1080 1 1 0.000000 19.461700 43.900700 18.147301 # 1 UNK
1081 1 1 0.000000 6.387780 26.970699 24.057699 # 1 UNK
1082 1 1 0.000000 4.180390 31.302299 24.034901 # 1 UNK
1083 1 1 0.000000 8.587690 31.280100 24.088600 # 1 UNK
1084 1 1 0.000000 24.049700 24.049900 15.226700 # 1 UNK
1085 1 1 0.000000 24.039400 26.308201 13.699100 # 1 UNK
1086 1 1 0.000000 24.046900 26.246901 22.648399 # 1 UNK
1087 1 1 0.000000 18.153200 26.956301 24.055300 # 1 UNK
1088 1 1 0.000000 15.927000 31.267900 24.076799 # 1 UNK
1089 1 1 0.000000 20.363199 31.250999 24.035101 # 1 UNK
1090 1 1 0.000000 46.901901 1.216910 21.054899 # 1 UNK
1091 1 1 0.000000 2.595010 0.974636 17.188801 # 1 UNK
1092 1 1 0.000000 9.973040 0.463143 16.770901 # 1 UNK
1093 1 1 0.000000 6.297500 38.905602 24.066799 # 1 UNK
1094 1 1 0.000000 3.869250 43.372398 24.179199 # 1 UNK
1095 1 1 0.000000 8.478720 43.120201 24.098499 # 1 UNK
1096 1 1 0.000000 24.043800 35.817799 15.323900 # 1 UNK
1097 1 1 0.000000 24.051100 38.012798 13.705200 # 1 UNK
1098 1 1 0.000000 24.063900 38.073101 22.659300 # 1 UNK
1099 1 1 0.000000 12.224900 0.506344 21.100901 # 1 UNK
1100 1 1 0.000000 14.432000 0.511073 16.770100 # 1 UNK
1101 1 1 0.000000 21.779200 0.512448 16.757500 # 1 UNK
1102 1 1 0.000000 18.142500 38.838100 24.057800 # 1 UNK
1103 1 1 0.000000 15.880700 43.134602 24.091200 # 1 UNK
1104 1 1 0.000000 20.392599 43.118999 24.025900 # 1 UNK
1105 1 1 0.000000 35.821800 24.039000 3.545300 # 1 UNK
1106 1 1 0.000000 35.824402 26.234900 1.926430 # 1 UNK
1107 1 1 0.000000 35.831001 26.298599 10.883300 # 1 UNK
1108 1 1 0.000000 35.858299 33.560600 1.909930 # 1 UNK
1109 1 1 0.000000 35.823002 33.617100 10.869300 # 1 UNK
1110 1 1 0.000000 41.707100 32.872799 0.507348 # 1 UNK
1111 1 1 0.000000 41.741100 25.405001 2.777800 # 1 UNK
1112 1 1 0.000000 41.734100 34.510899 2.689660 # 1 UNK
1113 1 1 0.000000 41.734100 25.400600 10.095400 # 1 UNK
1114 1 1 0.000000 41.737400 34.464802 10.015800 # 1 UNK
1115 1 1 0.000000 39.481400 28.513100 0.545661 # 1 UNK
1116 1 1 0.000000 38.073799 24.034000 7.822580 # 1 UNK
1117 1 1 0.000000 37.989300 27.728701 2.711230 # 1 UNK
1118 1 1 0.000000 37.984200 27.812700 10.108500 # 1 UNK
1119 1 1 0.000000 38.004398 32.039001 2.690540 # 1 UNK
1120 1 1 0.000000 37.989101 32.125900 10.084700 # 1 UNK
1121 1 1 0.000000 39.590599 26.181801 4.298670 # 1 UNK
1122 1 1 0.000000 39.598900 33.671101 4.198670 # 1 UNK
1123 1 1 0.000000 39.581699 26.195299 8.588570 # 1 UNK
1124 1 1 0.000000 39.586300 33.680199 8.500640 # 1 UNK
1125 1 1 0.000000 43.923901 28.533001 0.485068 # 1 UNK
1126 1 1 0.000000 45.386700 24.047199 7.827690 # 1 UNK
1127 1 1 0.000000 45.426899 27.749201 2.644590 # 1 UNK
1128 1 1 0.000000 45.429798 27.844900 10.165200 # 1 UNK
1129 1 1 0.000000 45.438301 32.067501 2.635880 # 1 UNK
1130 1 1 0.000000 45.418499 32.151798 10.155600 # 1 UNK
1131 1 1 0.000000 43.892300 26.194000 4.290000 # 1 UNK
1132 1 1 0.000000 43.889000 33.702499 4.186810 # 1 UNK
1133 1 1 0.000000 43.889301 26.213400 8.601880 # 1 UNK
1134 1 1 0.000000 43.896599 33.706902 8.498770 # 1 UNK
1135 1 1 0.000000 38.812698 29.938801 6.400090 # 1 UNK
1136 1 1 0.000000 44.670601 29.952600 6.392150 # 1 UNK
1137 1 1 0.000000 37.194401 29.962400 8.594930 # 1 UNK
1138 1 1 0.000000 46.202702 29.997200 8.646280 # 1 UNK
1139 1 1 0.000000 37.199699 29.893000 4.201880 # 1 UNK
1140 1 1 0.000000 46.213600 29.908800 4.145380 # 1 UNK
1141 1 1 0.000000 40.379299 27.707300 6.440590 # 1 UNK
1142 1 1 0.000000 43.112598 27.714800 6.438880 # 1 UNK
1143 1 1 0.000000 40.385601 32.164902 6.355340 # 1 UNK
1144 1 1 0.000000 43.118000 32.192902 6.345670 # 1 UNK
1145 1 1 0.000000 24.047001 35.817699 9.336490 # 1 UNK
1146 1 1 0.000000 26.255400 35.806000 4.981520 # 1 UNK
1147 1 1 0.000000 33.577400 35.813301 4.978130 # 1 UNK
1148 1 1 0.000000 24.058201 45.395699 1.849910 # 1 UNK
1149 1 1 0.000000 24.061300 45.328899 10.964200 # 1 UNK
1150 1 1 0.000000 29.950399 44.691898 0.523908 # 1 UNK
1151 1 1 0.000000 29.914301 37.167000 2.699310 # 1 UNK
1152 1 1 0.000000 29.925699 46.224899 2.777530 # 1 UNK
1153 1 1 0.000000 29.899599 37.166302 10.032200 # 1 UNK
1154 1 1 0.000000 29.932301 46.237701 10.096700 # 1 UNK
1155 1 1 0.000000 27.725401 40.386200 0.496734 # 1 UNK
1156 1 1 0.000000 26.238501 35.804100 7.713570 # 1 UNK
1157 1 1 0.000000 26.206499 39.588799 2.639320 # 1 UNK
1158 1 1 0.000000 26.204800 39.500900 10.159800 # 1 UNK
1159 1 1 0.000000 26.211500 43.895000 2.655240 # 1 UNK
1160 1 1 0.000000 26.211000 43.816200 10.173700 # 1 UNK
1161 1 1 0.000000 27.758101 37.964401 4.198170 # 1 UNK
1162 1 1 0.000000 27.770201 45.441898 4.284970 # 1 UNK
1163 1 1 0.000000 27.748100 37.950500 8.518980 # 1 UNK
1164 1 1 0.000000 27.768600 45.432598 8.611390 # 1 UNK
1165 1 1 0.000000 32.145000 40.409500 0.539112 # 1 UNK
1166 1 1 0.000000 33.568600 35.812901 7.709850 # 1 UNK
1167 1 1 0.000000 33.649399 39.592602 2.685590 # 1 UNK
1168 1 1 0.000000 33.635899 39.515400 10.086400 # 1 UNK
1169 1 1 0.000000 33.697701 43.911301 2.710610 # 1 UNK
1170 1 1 0.000000 33.673901 43.838902 10.105300 # 1 UNK
1171 1 1 0.000000 32.062099 37.968899 4.209690 # 1 UNK
1172 1 1 0.000000 32.083698 45.453201 4.289660 # 1 UNK
1173 1 1 0.000000 32.043800 37.951000 8.506940 # 1 UNK
1174 1 1 0.000000 32.077099 45.448399 8.576520 # 1 UNK
1175 1 1 0.000000 26.974199 41.704399 6.412360 # 1 UNK
1176 1 1 0.000000 32.831902 41.699402 6.383720 # 1 UNK
1177 1 1 0.000000 25.429399 41.663898 8.658260 # 1 UNK
1178 1 1 0.000000 34.429001 41.675999 8.593460 # 1 UNK
1179 1 1 0.000000 25.434401 41.737400 4.163040 # 1 UNK
1180 1 1 0.000000 34.462799 41.734699 4.197990 # 1 UNK
1181 1 1 0.000000 28.526501 39.463200 6.365080 # 1 UNK
1182 1 1 0.000000 31.259001 39.473000 6.361160 # 1 UNK
1183 1 1 0.000000 28.542999 43.934101 6.445140 # 1 UNK
1184 1 1 0.000000 31.275400 43.936501 6.430160 # 1 UNK
1185 1 1 0.000000 24.031601 33.564499 1.854030 # 1 UNK
1186 1 1 0.000000 24.039801 33.633801 10.970000 # 1 UNK
1187 1 1 0.000000 29.941999 32.807899 0.519059 # 1 UNK
1188 1 1 0.000000 29.910900 25.423401 2.780350 # 1 UNK
1189 1 1 0.000000 29.924801 34.434799 2.708410 # 1 UNK
1190 1 1 0.000000 29.918301 25.409300 10.104700 # 1 UNK
1191 1 1 0.000000 29.899700 34.433998 10.027100 # 1 UNK
1192 1 1 0.000000 27.702700 28.507799 0.499548 # 1 UNK
1193 1 1 0.000000 26.255800 24.046801 7.833540 # 1 UNK
1194 1 1 0.000000 26.193701 27.741400 2.660890 # 1 UNK
1195 1 1 0.000000 26.184401 27.821899 10.173800 # 1 UNK
1196 1 1 0.000000 26.180300 32.045200 2.637010 # 1 UNK
1197 1 1 0.000000 26.185600 32.125702 10.159800 # 1 UNK
1198 1 1 0.000000 27.754999 26.198200 4.291970 # 1 UNK
1199 1 1 0.000000 27.756399 33.646900 4.195730 # 1 UNK
1200 1 1 0.000000 27.753099 26.209400 8.618280 # 1 UNK
1201 1 1 0.000000 27.746799 33.653500 8.513790 # 1 UNK
1202 1 1 0.000000 32.175598 28.516500 0.543904 # 1 UNK
1203 1 1 0.000000 33.575401 24.043200 7.827900 # 1 UNK
1204 1 1 0.000000 33.668499 27.740700 2.712790 # 1 UNK
1205 1 1 0.000000 33.671299 27.810101 10.119500 # 1 UNK
1206 1 1 0.000000 33.696701 32.057098 2.684470 # 1 UNK
1207 1 1 0.000000 33.660599 32.118099 10.090300 # 1 UNK
1208 1 1 0.000000 32.064899 26.193800 4.298610 # 1 UNK
1209 1 1 0.000000 32.079201 33.644699 4.214680 # 1 UNK
1210 1 1 0.000000 32.067799 26.204000 8.594160 # 1 UNK
1211 1 1 0.000000 32.055199 33.667198 8.509340 # 1 UNK
1212 1 1 0.000000 26.952700 29.929300 6.409110 # 1 UNK
1213 1 1 0.000000 32.853298 29.922701 6.400200 # 1 UNK
1214 1 1 0.000000 25.402100 29.969400 8.651600 # 1 UNK
1215 1 1 0.000000 34.462002 29.956499 8.601820 # 1 UNK
1216 1 1 0.000000 25.405199 29.898701 4.164410 # 1 UNK
1217 1 1 0.000000 34.467400 29.902800 4.202280 # 1 UNK
1218 1 1 0.000000 28.530500 27.705500 6.451510 # 1 UNK
1219 1 1 0.000000 31.263100 27.707899 6.443990 # 1 UNK
1220 1 1 0.000000 28.537701 32.147800 6.358850 # 1 UNK
1221 1 1 0.000000 31.270500 32.142700 6.365230 # 1 UNK
1222 1 1 0.000000 29.933399 27.040701 12.290600 # 1 UNK
1223 1 1 0.000000 27.695200 31.351900 12.318200 # 1 UNK
1224 1 1 0.000000 32.166401 31.347601 12.259600 # 1 UNK
1225 1 1 0.000000 24.037800 33.624901 13.702100 # 1 UNK
1226 1 1 0.000000 24.029699 33.562801 22.654699 # 1 UNK
1227 1 1 0.000000 29.932400 32.910801 12.287700 # 1 UNK
1228 1 1 0.000000 29.965700 25.418501 14.482800 # 1 UNK
1229 1 1 0.000000 29.966600 34.443901 14.541800 # 1 UNK
1230 1 1 0.000000 29.974701 25.417400 21.799400 # 1 UNK
1231 1 1 0.000000 29.963200 34.440701 21.863600 # 1 UNK
1232 1 1 0.000000 27.710300 28.619101 12.312900 # 1 UNK
1233 1 1 0.000000 26.301300 24.057400 19.488400 # 1 UNK
1234 1 1 0.000000 26.201401 27.818199 14.462100 # 1 UNK
1235 1 1 0.000000 26.207001 27.744900 21.858900 # 1 UNK
1236 1 1 0.000000 26.198900 32.125500 14.485300 # 1 UNK
1237 1 1 0.000000 26.192600 32.054798 21.889999 # 1 UNK
1238 1 1 0.000000 27.815300 26.222500 15.988200 # 1 UNK
1239 1 1 0.000000 27.817400 33.665298 16.062700 # 1 UNK
1240 1 1 0.000000 27.822800 26.199600 20.283600 # 1 UNK
1241 1 1 0.000000 27.808599 33.644798 20.360500 # 1 UNK
1242 1 1 0.000000 32.159100 28.615101 12.264400 # 1 UNK
1243 1 1 0.000000 33.639900 24.042200 19.483700 # 1 UNK
1244 1 1 0.000000 33.686600 27.814501 14.400300 # 1 UNK
1245 1 1 0.000000 33.688499 27.743401 21.917999 # 1 UNK
1246 1 1 0.000000 33.680401 32.116798 14.416500 # 1 UNK
1247 1 1 0.000000 33.695499 32.049702 21.936300 # 1 UNK
1248 1 1 0.000000 32.133202 26.203600 15.972400 # 1 UNK
1249 1 1 0.000000 32.121101 33.658798 16.050200 # 1 UNK
1250 1 1 0.000000 32.132999 26.191299 20.289600 # 1 UNK
1251 1 1 0.000000 32.124802 33.648602 20.369801 # 1 UNK
1252 1 1 0.000000 27.018101 29.931000 18.175699 # 1 UNK
1253 1 1 0.000000 32.924999 29.929300 18.169300 # 1 UNK
1254 1 1 0.000000 25.402201 29.907400 20.372499 # 1 UNK
1255 1 1 0.000000 34.472698 29.901300 20.413300 # 1 UNK
1256 1 1 0.000000 25.403400 29.963900 15.977900 # 1 UNK
1257 1 1 0.000000 34.468498 29.961500 15.922400 # 1 UNK
1258 1 1 0.000000 28.618299 27.723000 18.142300 # 1 UNK
1259 1 1 0.000000 31.351200 27.702499 18.135099 # 1 UNK
1260 1 1 0.000000 28.610001 32.144600 18.206200 # 1 UNK
1261 1 1 0.000000 31.342800 32.149799 18.207100 # 1 UNK
1262 1 1 0.000000 0.528343 24.056700 3.458610 # 1 UNK
1263 1 1 0.000000 0.530687 26.249599 1.836600 # 1 UNK
1264 1 1 0.000000 0.521658 26.323500 10.962300 # 1 UNK
1265 1 1 0.000000 35.815701 35.812302 9.252050 # 1 UNK
1266 1 1 0.000000 38.078400 35.823101 4.965610 # 1 UNK
1267 1 1 0.000000 45.381500 35.874500 4.954900 # 1 UNK
1268 1 1 0.000000 35.823898 35.819698 3.433910 # 1 UNK
1269 1 1 0.000000 35.797199 38.074200 1.903180 # 1 UNK
1270 1 1 0.000000 35.799000 38.014702 10.859300 # 1 UNK
1271 1 1 0.000000 35.890301 45.366199 1.929070 # 1 UNK
1272 1 1 0.000000 35.839901 45.352699 10.846000 # 1 UNK
1273 1 1 0.000000 41.877998 44.670101 0.618613 # 1 UNK
1274 1 1 0.000000 41.744202 37.245201 2.669640 # 1 UNK
1275 1 1 0.000000 42.049801 46.102402 2.956300 # 1 UNK
1276 1 1 0.000000 41.740299 37.196400 9.989660 # 1 UNK
1277 1 1 0.000000 41.764099 46.217300 9.987660 # 1 UNK
1278 1 1 0.000000 39.458900 40.355999 0.528317 # 1 UNK
1279 1 1 0.000000 38.053200 35.810501 7.696620 # 1 UNK
1280 1 1 0.000000 37.957199 39.573502 2.682400 # 1 UNK
1281 1 1 0.000000 37.954601 39.511200 10.059600 # 1 UNK
1282 1 1 0.000000 38.069302 43.867401 2.667640 # 1 UNK
1283 1 1 0.000000 37.973801 43.821999 10.052700 # 1 UNK
1284 1 1 0.000000 39.584000 37.981602 4.194380 # 1 UNK
1285 1 1 0.000000 39.703400 45.416698 4.221710 # 1 UNK
1286 1 1 0.000000 39.567299 37.955002 8.494830 # 1 UNK
1287 1 1 0.000000 39.592602 45.399300 8.513870 # 1 UNK
1288 1 1 0.000000 43.908298 40.671101 0.536568 # 1 UNK
1289 1 1 0.000000 45.403500 35.855202 7.688120 # 1 UNK
1290 1 1 0.000000 45.427399 39.694401 2.618390 # 1 UNK
1291 1 1 0.000000 45.461601 39.530800 10.116800 # 1 UNK
1292 1 1 0.000000 46.068001 44.304901 2.717990 # 1 UNK
1293 1 1 0.000000 45.591599 43.945499 10.095800 # 1 UNK
1294 1 1 0.000000 43.896801 38.046299 4.174310 # 1 UNK
1295 1 1 0.000000 44.381802 45.760700 4.438430 # 1 UNK
1296 1 1 0.000000 43.887798 38.003201 8.482450 # 1 UNK
1297 1 1 0.000000 43.859299 45.307598 8.471780 # 1 UNK
1298 1 1 0.000000 38.795200 41.704102 6.378930 # 1 UNK
1299 1 1 0.000000 44.710999 41.742199 6.357600 # 1 UNK
1300 1 1 0.000000 37.160500 41.667301 8.560370 # 1 UNK
1301 1 1 0.000000 46.223801 41.704800 8.624430 # 1 UNK
1302 1 1 0.000000 37.194199 41.745800 4.173140 # 1 UNK
1303 1 1 0.000000 46.201801 41.888802 4.076090 # 1 UNK
1304 1 1 0.000000 40.369400 39.476501 6.356590 # 1 UNK
1305 1 1 0.000000 43.103500 39.534500 6.340830 # 1 UNK
1306 1 1 0.000000 40.436600 43.883598 6.383640 # 1 UNK
1307 1 1 0.000000 43.162399 43.977798 6.169360 # 1 UNK
1308 1 1 0.000000 41.706902 27.022800 12.287500 # 1 UNK
1309 1 1 0.000000 39.482201 31.350599 12.253900 # 1 UNK
1310 1 1 0.000000 43.924301 31.362000 12.318400 # 1 UNK
1311 1 1 0.000000 35.828602 24.034401 15.139500 # 1 UNK
1312 1 1 0.000000 35.834099 26.294100 13.615400 # 1 UNK
1313 1 1 0.000000 35.831699 26.232901 22.730499 # 1 UNK
1314 1 1 0.000000 35.824501 33.623402 13.600800 # 1 UNK
1315 1 1 0.000000 35.840302 33.569099 22.726999 # 1 UNK
1316 1 1 0.000000 41.699600 32.938000 12.272900 # 1 UNK
1317 1 1 0.000000 41.686699 25.402000 14.481100 # 1 UNK
1318 1 1 0.000000 41.680801 34.468201 14.528200 # 1 UNK
1319 1 1 0.000000 41.682499 25.402901 21.802900 # 1 UNK
1320 1 1 0.000000 41.698502 34.476601 21.844601 # 1 UNK
1321 1 1 0.000000 39.495998 28.618200 12.252900 # 1 UNK
1322 1 1 0.000000 38.018501 24.034700 19.482800 # 1 UNK
1323 1 1 0.000000 37.980000 27.817101 14.396400 # 1 UNK
1324 1 1 0.000000 37.978901 27.741400 21.922800 # 1 UNK
1325 1 1 0.000000 37.973301 32.121601 14.413400 # 1 UNK
1326 1 1 0.000000 37.989399 32.056900 21.931801 # 1 UNK
1327 1 1 0.000000 39.524601 26.201000 15.970900 # 1 UNK
1328 1 1 0.000000 39.528900 33.678299 16.036301 # 1 UNK
1329 1 1 0.000000 39.525299 26.181101 20.293800 # 1 UNK
1330 1 1 0.000000 39.534199 33.675098 20.358400 # 1 UNK
1331 1 1 0.000000 43.909599 28.629601 12.312600 # 1 UNK
1332 1 1 0.000000 45.338501 24.042999 19.497900 # 1 UNK
1333 1 1 0.000000 45.413700 27.830900 14.466000 # 1 UNK
1334 1 1 0.000000 45.414200 27.772600 21.851900 # 1 UNK
1335 1 1 0.000000 45.424702 32.143600 14.480300 # 1 UNK
1336 1 1 0.000000 45.411999 32.095001 21.871599 # 1 UNK
1337 1 1 0.000000 43.831600 26.205400 15.994300 # 1 UNK
1338 1 1 0.000000 43.840000 33.723301 16.052700 # 1 UNK
1339 1 1 0.000000 43.825500 26.196501 20.279499 # 1 UNK
1340 1 1 0.000000 43.857399 33.726898 20.321100 # 1 UNK
1341 1 1 0.000000 38.742699 29.937700 18.169100 # 1 UNK
1342 1 1 0.000000 44.590500 29.956301 18.172800 # 1 UNK
1343 1 1 0.000000 37.205200 29.903400 20.419800 # 1 UNK
1344 1 1 0.000000 46.208099 29.940800 20.367599 # 1 UNK
1345 1 1 0.000000 37.200901 29.962601 15.921100 # 1 UNK
1346 1 1 0.000000 46.209000 29.980900 15.977200 # 1 UNK
1347 1 1 0.000000 40.296501 27.696600 18.138800 # 1 UNK
1348 1 1 0.000000 43.029701 27.721100 18.138901 # 1 UNK
1349 1 1 0.000000 40.307400 32.171600 18.195299 # 1 UNK
1350 1 1 0.000000 43.040199 32.198299 18.191000 # 1 UNK
1351 1 1 0.000000 24.047701 0.526018 9.421980 # 1 UNK
1352 1 1 0.000000 26.253401 0.531681 5.094570 # 1 UNK
1353 1 1 0.000000 33.617500 0.540140 5.075360 # 1 UNK
1354 1 1 0.000000 29.934700 38.700298 12.285200 # 1 UNK
1355 1 1 0.000000 27.736601 43.010601 12.309400 # 1 UNK
1356 1 1 0.000000 32.171700 43.030998 12.256200 # 1 UNK
1357 1 1 0.000000 24.045700 35.819599 21.125099 # 1 UNK
1358 1 1 0.000000 26.295200 35.806198 16.860100 # 1 UNK
1359 1 1 0.000000 33.623402 35.813099 16.849400 # 1 UNK
1360 1 1 0.000000 24.055700 45.322201 13.695700 # 1 UNK
1361 1 1 0.000000 24.061701 45.389400 22.653099 # 1 UNK
1362 1 1 0.000000 29.947100 44.606400 12.281700 # 1 UNK
1363 1 1 0.000000 29.967100 37.176498 14.545100 # 1 UNK
1364 1 1 0.000000 29.973400 46.227402 14.474100 # 1 UNK
1365 1 1 0.000000 29.962299 37.173302 21.865299 # 1 UNK
1366 1 1 0.000000 29.972601 46.230999 21.794701 # 1 UNK
1367 1 1 0.000000 27.710400 40.278000 12.318600 # 1 UNK
1368 1 1 0.000000 26.300301 35.804600 19.592100 # 1 UNK
1369 1 1 0.000000 26.216299 39.506401 14.487600 # 1 UNK
1370 1 1 0.000000 26.221399 39.582298 21.885401 # 1 UNK
1371 1 1 0.000000 26.223499 43.818501 14.453300 # 1 UNK
1372 1 1 0.000000 26.226299 43.897701 21.864599 # 1 UNK
1373 1 1 0.000000 27.815901 37.948799 16.066000 # 1 UNK
1374 1 1 0.000000 27.821199 45.429600 15.979800 # 1 UNK
1375 1 1 0.000000 27.810600 37.965900 20.355801 # 1 UNK
1376 1 1 0.000000 27.823601 45.447800 20.276199 # 1 UNK
1377 1 1 0.000000 32.145302 40.298302 12.254400 # 1 UNK
1378 1 1 0.000000 33.614101 35.814400 19.580900 # 1 UNK
1379 1 1 0.000000 33.661499 39.519600 14.406500 # 1 UNK
1380 1 1 0.000000 33.670898 39.595001 21.929199 # 1 UNK
1381 1 1 0.000000 33.709202 43.845501 14.380700 # 1 UNK
1382 1 1 0.000000 33.688301 43.908901 21.911699 # 1 UNK
1383 1 1 0.000000 32.122200 37.967602 16.049999 # 1 UNK
1384 1 1 0.000000 32.140900 45.435200 15.960200 # 1 UNK
1385 1 1 0.000000 32.117100 37.975700 20.366699 # 1 UNK
1386 1 1 0.000000 32.123798 45.448299 20.280701 # 1 UNK
1387 1 1 0.000000 27.035500 41.702702 18.173800 # 1 UNK
1388 1 1 0.000000 32.910000 41.705700 18.151899 # 1 UNK
1389 1 1 0.000000 25.428600 41.734100 20.376499 # 1 UNK
1390 1 1 0.000000 34.443901 41.743198 20.405001 # 1 UNK
1391 1 1 0.000000 25.427099 41.674999 15.972200 # 1 UNK
1392 1 1 0.000000 34.449600 41.681900 15.902800 # 1 UNK
1393 1 1 0.000000 28.606800 39.475101 18.205999 # 1 UNK
1394 1 1 0.000000 31.339100 39.477100 18.204901 # 1 UNK
1395 1 1 0.000000 28.615200 43.924301 18.133801 # 1 UNK
1396 1 1 0.000000 31.347700 43.940102 18.121901 # 1 UNK
1397 1 1 0.000000 0.535511 35.892799 3.345990 # 1 UNK
1398 1 1 0.000000 0.565451 38.199100 1.892220 # 1 UNK
1399 1 1 0.000000 0.568529 38.053001 10.958700 # 1 UNK
1400 1 1 0.000000 35.867199 0.545907 9.296180 # 1 UNK
1401 1 1 0.000000 38.161400 0.493210 5.024830 # 1 UNK
1402 1 1 0.000000 46.015800 0.957597 4.418750 # 1 UNK
1403 1 1 0.000000 41.699799 38.731800 12.241000 # 1 UNK
1404 1 1 0.000000 39.481400 43.023998 12.203800 # 1 UNK
1405 1 1 0.000000 43.915100 43.031898 12.089100 # 1 UNK
1406 1 1 0.000000 35.819901 35.815102 21.183399 # 1 UNK
1407 1 1 0.000000 38.008099 35.821800 16.828300 # 1 UNK
1408 1 1 0.000000 45.367802 35.872799 16.816601 # 1 UNK
1409 1 1 0.000000 35.807499 35.817699 15.218100 # 1 UNK
1410 1 1 0.000000 35.800999 38.005001 13.590600 # 1 UNK
1411 1 1 0.000000 35.807701 38.064701 22.722000 # 1 UNK
1412 1 1 0.000000 35.845501 45.373199 13.577500 # 1 UNK
1413 1 1 0.000000 35.841900 45.422501 22.689600 # 1 UNK
1414 1 1 0.000000 41.695900 44.613701 12.195500 # 1 UNK
1415 1 1 0.000000 41.675800 37.199902 14.495000 # 1 UNK
1416 1 1 0.000000 41.702000 46.211601 14.407600 # 1 UNK
1417 1 1 0.000000 41.666599 37.208000 21.806499 # 1 UNK
1418 1 1 0.000000 41.709499 46.215199 21.738899 # 1 UNK
1419 1 1 0.000000 39.464500 40.292000 12.213300 # 1 UNK
1420 1 1 0.000000 38.011600 35.815102 19.559999 # 1 UNK
1421 1 1 0.000000 37.957401 39.512299 14.369900 # 1 UNK
1422 1 1 0.000000 37.940498 39.583199 21.901100 # 1 UNK
1423 1 1 0.000000 37.977501 43.828201 14.355800 # 1 UNK
1424 1 1 0.000000 37.969299 43.892101 21.874800 # 1 UNK
1425 1 1 0.000000 39.511501 37.962299 15.999400 # 1 UNK
1426 1 1 0.000000 39.537899 45.444901 15.915300 # 1 UNK
1427 1 1 0.000000 39.500099 37.991901 20.316999 # 1 UNK
1428 1 1 0.000000 39.543900 45.426601 20.250601 # 1 UNK
1429 1 1 0.000000 43.927601 40.303600 12.258800 # 1 UNK
1430 1 1 0.000000 45.366798 35.886902 19.548000 # 1 UNK
1431 1 1 0.000000 45.434700 39.558399 14.429600 # 1 UNK
1432 1 1 0.000000 45.465900 39.596199 21.827801 # 1 UNK
1433 1 1 0.000000 45.394501 43.824200 14.264800 # 1 UNK
1434 1 1 0.000000 45.441700 43.900200 21.821400 # 1 UNK
1435 1 1 0.000000 43.831402 37.993801 15.997700 # 1 UNK
1436 1 1 0.000000 43.867401 45.406200 15.899400 # 1 UNK
1437 1 1 0.000000 43.819698 38.023300 20.311001 # 1 UNK
1438 1 1 0.000000 43.770699 45.307598 20.170700 # 1 UNK
1439 1 1 0.000000 38.705799 41.687801 18.122999 # 1 UNK
1440 1 1 0.000000 44.671001 41.690300 18.098101 # 1 UNK
1441 1 1 0.000000 37.175900 41.734100 20.377399 # 1 UNK
1442 1 1 0.000000 46.258400 41.750702 20.315300 # 1 UNK
1443 1 1 0.000000 37.181099 41.678200 15.864800 # 1 UNK
1444 1 1 0.000000 46.237801 41.756901 15.866100 # 1 UNK
1445 1 1 0.000000 40.297199 39.474701 18.150101 # 1 UNK
1446 1 1 0.000000 43.029701 39.511101 18.141600 # 1 UNK
1447 1 1 0.000000 40.268902 43.919998 18.075899 # 1 UNK
1448 1 1 0.000000 42.997101 43.839500 17.984400 # 1 UNK
1449 1 1 0.000000 29.943501 26.957199 24.049400 # 1 UNK
1450 1 1 0.000000 27.712000 31.249901 24.030100 # 1 UNK
1451 1 1 0.000000 32.171600 31.251301 24.075899 # 1 UNK
1452 1 1 0.000000 0.527163 24.049900 15.212200 # 1 UNK
1453 1 1 0.000000 0.520344 26.316900 13.696000 # 1 UNK
1454 1 1 0.000000 0.521665 26.268999 22.639900 # 1 UNK
1455 1 1 0.000000 41.712200 26.949400 24.048500 # 1 UNK
1456 1 1 0.000000 39.505798 31.258400 24.076700 # 1 UNK
1457 1 1 0.000000 43.918400 31.284500 24.028299 # 1 UNK
1458 1 1 0.000000 24.045900 0.524197 21.020201 # 1 UNK
1459 1 1 0.000000 26.305799 0.533535 16.753099 # 1 UNK
1460 1 1 0.000000 33.654499 0.537911 16.741400 # 1 UNK
1461 1 1 0.000000 29.944000 38.801800 24.052999 # 1 UNK
1462 1 1 0.000000 27.727400 43.125801 24.029301 # 1 UNK
1463 1 1 0.000000 32.184101 43.135399 24.073500 # 1 UNK
1464 1 1 0.000000 0.555054 35.879299 15.258800 # 1 UNK
1465 1 1 0.000000 0.598267 38.111401 13.692200 # 1 UNK
1466 1 1 0.000000 0.585519 38.129398 22.658600 # 1 UNK
1467 1 1 0.000000 35.881401 0.549755 21.047199 # 1 UNK
1468 1 1 0.000000 38.098301 0.581673 16.745199 # 1 UNK
1469 1 1 0.000000 45.745998 0.336115 16.314699 # 1 UNK
1470 1 1 0.000000 41.677898 38.787201 24.028299 # 1 UNK
1471 1 1 0.000000 39.469002 43.102402 24.033800 # 1 UNK
1472 1 1 0.000000 43.848701 43.048698 23.892599 # 1 UNK
1473 1 1 0.000000 9.981990 9.551250 36.506599 # 1 UNK
1474 1 1 0.000000 15.097400 42.976601 34.799500 # 1 UNK
1475 1 1 0.000000 37.692101 7.607480 36.088299 # 1 UNK
1476 1 1 0.000000 25.318300 19.134800 26.327499 # 1 UNK
1477 1 1 0.000000 0.921444 9.180440 45.677502 # 1 UNK
1478 1 1 0.000000 37.869400 38.547401 34.081699 # 1 UNK
1479 1 1 0.000000 34.278702 19.063400 35.079601 # 1 UNK
1480 1 1 0.000000 12.706200 1.563480 42.530300 # 1 UNK
1481 1 1 0.000000 19.683201 38.305599 36.826199 # 1 UNK
1482 1 1 0.000000 45.441502 24.048800 32.004799 # 1 UNK
1483 1 1 0.000000 16.649700 1.025090 35.899399 # 1 UNK
1484 1 1 0.000000 15.046600 39.222099 31.427200 # 1 UNK
1485 1 1 0.000000 8.833070 31.602699 32.654400 # 1 UNK
1486 1 1 0.000000 3.699180 7.458910 31.972900 # 1 UNK
1487 1 1 0.000000 11.617500 18.153200 44.943100 # 1 UNK
1488 1 1 0.000000 44.723900 17.448200 29.400200 # 1 UNK
1489 1 1 0.000000 32.214199 38.051201 33.053101 # 1 UNK
1490 1 1 0.000000 10.686100 6.002220 43.809502 # 1 UNK
1491 1 1 0.000000 13.098400 5.232570 26.396601 # 1 UNK
1492 1 1 0.000000 17.349800 37.443100 0.219822 # 1 UNK
1493 1 1 0.000000 23.485701 27.602400 39.404202 # 1 UNK
1494 1 1 0.000000 20.465300 45.403400 42.858200 # 1 UNK
1495 1 1 0.000000 17.288300 33.611599 42.567501 # 1 UNK
1496 1 1 0.000000 41.613098 44.764000 34.802101 # 1 UNK
1497 1 1 0.000000 31.977501 25.434900 41.220200 # 1 UNK
1498 1 1 0.000000 28.226601 1.611890 33.717400 # 1 UNK
1499 1 1 0.000000 34.549099 3.744090 33.547600 # 1 UNK
1500 1 1 0.000000 9.760650 45.361599 34.785198 # 1 UNK
1501 1 1 0.000000 30.217600 10.976300 26.516600 # 1 UNK
1502 1 1 0.000000 9.861930 6.616230 26.919901 # 1 UNK
1503 1 1 0.000000 35.840599 10.076300 41.082401 # 1 UNK
1504 1 1 0.000000 11.699100 11.877000 46.042301 # 1 UNK
1505 1 1 0.000000 11.672800 19.324800 30.551399 # 1 UNK
1506 1 1 0.000000 19.153900 11.582100 26.114700 # 1 UNK
1507 1 1 0.000000 9.975080 21.451799 33.430698 # 1 UNK
1508 1 1 0.000000 4.196930 39.883900 29.576200 # 1 UNK
1509 1 1 0.000000 1.243550 32.316700 39.515999 # 1 UNK
1510 1 1 0.000000 11.881300 10.011300 38.344398 # 1 UNK
1511 1 1 0.000000 30.487700 19.045601 30.038700 # 1 UNK
1512 1 1 0.000000 28.074600 9.316210 42.613201 # 1 UNK
1513 1 1 0.000000 28.127300 21.883200 36.125599 # 1 UNK
1514 1 1 0.000000 12.914200 5.452380 33.522400 # 1 UNK
1515 1 1 0.000000 45.849300 41.480202 24.959600 # 1 UNK
1516 1 1 0.000000 24.219400 26.300200 31.412001 # 1 UNK
1517 1 1 0.000000 23.039400 31.991199 24.447399 # 1 UNK
1518 1 1 0.000000 20.532101 22.768400 33.689999 # 1 UNK
1519 1 1 0.000000 4.673520 45.940102 38.881001 # 1 UNK
1520 1 1 0.000000 29.249800 14.710000 35.284599 # 1 UNK
1521 1 1 0.000000 1.012130 6.677200 38.705502 # 1 UNK
1522 1 1 0.000000 13.141800 5.580940 42.993999 # 1 UNK
1523 1 1 0.000000 8.008350 36.378502 26.556400 # 1 UNK
1524 1 1 0.000000 23.133200 6.124450 34.863998 # 1 UNK
1525 1 1 0.000000 43.798000 38.153702 32.918400 # 1 UNK
1526 1 1 0.000000 41.885601 26.900000 0.248799 # 1 UNK
1527 1 1 0.000000 1.473710 8.705550 32.193802 # 1 UNK
1528 1 1 0.000000 14.289900 45.519001 27.468399 # 1 UNK
1529 1 1 0.000000 9.151720 42.695599 37.928101 # 1 UNK
1530 1 1 0.000000 44.542000 6.146380 38.573502 # 1 UNK
1531 1 1 0.000000 35.433399 15.550000 39.401501 # 1 UNK
1532 1 1 0.000000 30.810301 35.619301 33.532600 # 1 UNK
1533 1 1 0.000000 15.254600 25.597700 34.963600 # 1 UNK
1534 1 1 0.000000 1.203970 15.705500 29.086901 # 1 UNK
1535 1 1 0.000000 39.035900 28.298201 24.592501 # 1 UNK
1536 1 1 0.000000 44.219601 12.241400 43.933701 # 1 UNK
1537 1 1 0.000000 44.660198 27.418200 25.870399 # 1 UNK
1538 1 1 0.000000 10.583300 22.567699 36.922699 # 1 UNK
1539 1 1 0.000000 21.611401 13.201200 26.506100 # 1 UNK
1540 1 1 0.000000 19.737200 21.932800 41.068100 # 1 UNK
1541 1 1 0.000000 14.059000 21.153900 28.835199 # 1 UNK
1542 1 1 0.000000 9.868250 8.393010 33.335701 # 1 UNK
1543 1 1 0.000000 16.996401 41.971100 38.267101 # 1 UNK
1544 1 1 0.000000 5.380280 15.070600 39.983700 # 1 UNK
1545 1 1 0.000000 15.839700 22.066900 30.688499 # 1 UNK
1546 1 1 0.000000 22.754101 27.587999 27.839899 # 1 UNK
1547 1 1 0.000000 10.255500 31.417900 44.894100 # 1 UNK
1548 1 1 0.000000 7.718330 30.230801 30.517500 # 1 UNK
1549 1 1 0.000000 25.790899 5.678090 27.559900 # 1 UNK
1550 1 1 0.000000 39.341301 7.864750 29.998600 # 1 UNK
1551 1 1 0.000000 6.401030 18.378901 25.072100 # 1 UNK
1552 1 1 0.000000 32.777199 17.656300 27.160500 # 1 UNK
1553 1 1 0.000000 31.133101 14.039500 28.846201 # 1 UNK
1554 1 1 0.000000 0.563465 32.426300 34.742199 # 1 UNK
1555 1 1 0.000000 33.547001 11.521700 40.916599 # 1 UNK
1556 1 1 0.000000 26.550100 15.147800 31.975100 # 1 UNK
1557 1 1 0.000000 7.260500 39.017799 33.012798 # 1 UNK
1558 1 1 0.000000 21.330700 25.602800 25.981100 # 1 UNK
1559 1 1 0.000000 14.144600 20.525900 26.007200 # 1 UNK
1560 1 1 0.000000 9.977950 46.979698 31.511700 # 1 UNK
1561 1 1 0.000000 1.129390 0.861976 34.080898 # 1 UNK
1562 1 1 0.000000 9.251590 1.845220 27.522400 # 1 UNK
1563 1 1 0.000000 2.175630 3.991850 37.112999 # 1 UNK
1564 1 1 0.000000 1.248330 37.346699 31.370399 # 1 UNK
1565 1 1 0.000000 39.447300 22.914499 28.164200 # 1 UNK
1566 1 1 0.000000 39.900700 1.936160 30.395599 # 1 UNK
1567 1 1 0.000000 39.606400 42.727501 34.422298 # 1 UNK
1568 1 1 0.000000 33.375599 3.390010 35.974098 # 1 UNK
1569 1 1 0.000000 20.177700 6.475390 35.615101 # 1 UNK
1570 1 1 0.000000 18.275299 46.887798 33.573101 # 1 UNK
1571 1 1 0.000000 27.513800 10.918700 35.368900 # 1 UNK
1572 1 1 0.000000 23.393299 34.714500 24.966400 # 1 UNK
1573 1 1 0.000000 7.496850 12.074000 38.155899 # 1 UNK
1574 1 1 0.000000 16.132999 31.393000 41.409000 # 1 UNK
1575 1 1 0.000000 46.755798 40.055199 34.709301 # 1 UNK
1576 1 1 0.000000 43.873100 2.603440 45.494801 # 1 UNK
1577 1 1 0.000000 2.955750 44.936100 26.128799 # 1 UNK
1578 1 1 0.000000 19.102200 25.322001 32.813499 # 1 UNK
1579 1 1 0.000000 29.876801 44.610699 24.142599 # 1 UNK
1580 1 1 0.000000 30.062700 2.306860 39.334000 # 1 UNK
1581 1 1 0.000000 43.155300 21.651400 40.702000 # 1 UNK
1582 1 1 0.000000 38.665199 7.093610 44.581699 # 1 UNK
1583 1 1 0.000000 35.814201 31.768101 26.851400 # 1 UNK
1584 1 1 0.000000 10.287700 42.264999 28.436399 # 1 UNK
1585 1 1 0.000000 43.227501 4.375320 43.282398 # 1 UNK
1586 1 1 0.000000 1.441010 15.566500 33.855202 # 1 UNK
1587 1 1 0.000000 21.783701 43.016701 31.398800 # 1 UNK
1588 1 1 0.000000 2.685600 6.175520 29.426201 # 1 UNK
1589 1 1 0.000000 41.880100 29.179899 35.003700 # 1 UNK
1590 1 1 0.000000 10.153600 5.815050 41.147499 # 1 UNK
1591 1 1 0.000000 17.184700 11.190700 45.208599 # 1 UNK
1592 1 1 0.000000 15.367800 19.509300 0.301587 # 1 UNK
1593 1 1 0.000000 47.008301 18.986300 29.486799 # 1 UNK
1594 1 1 0.000000 30.765100 5.107610 34.463402 # 1 UNK
1595 1 1 0.000000 5.930440 43.558399 31.873400 # 1 UNK
1596 1 1 0.000000 37.303001 45.557598 45.283401 # 1 UNK
1597 1 1 0.000000 4.857700 33.304100 35.580200 # 1 UNK
1598 1 1 0.000000 3.072790 31.645901 33.778702 # 1 UNK
1599 1 1 0.000000 6.386660 12.206900 31.653799 # 1 UNK
1600 1 1 0.000000 11.377900 41.307201 39.263901 # 1 UNK
1601 1 1 0.000000 7.109500 30.789700 35.600300 # 1 UNK
1602 1 1 0.000000 39.623402 4.948560 23.997700 # 1 UNK
1603 1 1 0.000000 3.139560 43.418999 0.457399 # 1 UNK
1604 1 1 0.000000 40.023998 16.792900 27.698500 # 1 UNK
1605 1 1 0.000000 45.698200 33.112999 45.680599 # 1 UNK
1606 1 1 0.000000 27.359900 44.647999 30.506901 # 1 UNK
1607 1 1 0.000000 14.029900 9.261190 46.819401 # 1 UNK
1608 1 1 0.000000 14.994300 44.896900 36.729698 # 1 UNK
1609 1 1 0.000000 2.394540 29.274599 42.229599 # 1 UNK
1610 1 1 0.000000 11.439900 44.532799 46.466400 # 1 UNK
1611 1 1 0.000000 46.458199 10.276300 35.791401 # 1 UNK
1612 1 1 0.000000 0.505385 10.754800 30.357300 # 1 UNK
1613 1 1 0.000000 13.703000 18.481199 32.664200 # 1 UNK
1614 1 1 0.000000 26.084801 21.797501 27.361500 # 1 UNK
1615 1 1 0.000000 11.082600 4.339380 39.054600 # 1 UNK
1616 1 1 0.000000 7.545510 1.680190 41.442902 # 1 UNK
1617 1 1 0.000000 7.651320 2.432050 36.073700 # 1 UNK
1618 1 1 0.000000 41.536999 9.941050 44.950100 # 1 UNK
1619 1 1 0.000000 29.536200 28.751801 42.602299 # 1 UNK
1620 1 1 0.000000 45.881901 10.738700 42.381802 # 1 UNK
1621 1 1 0.000000 16.432600 21.432301 44.844200 # 1 UNK
1622 1 1 0.000000 43.573299 45.077801 45.341999 # 1 UNK
1623 1 1 0.000000 27.236099 19.165600 41.568298 # 1 UNK
1624 1 1 0.000000 2.666070 14.695300 41.994900 # 1 UNK
1625 1 1 0.000000 9.700260 11.243400 26.510599 # 1 UNK
1626 1 1 0.000000 29.764500 6.083160 40.967098 # 1 UNK
1627 1 1 0.000000 18.345501 9.363150 24.563700 # 1 UNK
1628 1 1 0.000000 3.986330 28.528299 24.309700 # 1 UNK
1629 1 1 0.000000 33.256302 15.046200 26.352699 # 1 UNK
1630 1 1 0.000000 41.794300 32.340302 37.926498 # 1 UNK
1631 1 1 0.000000 10.285700 1.637760 45.004799 # 1 UNK
1632 1 1 0.000000 9.861670 42.668999 35.193802 # 1 UNK
1633 1 1 0.000000 44.126202 44.348400 34.486500 # 1 UNK
1634 1 1 0.000000 10.972700 44.716801 25.082500 # 1 UNK
1635 1 1 0.000000 23.885099 41.036701 31.284800 # 1 UNK
1636 1 1 0.000000 39.889099 7.046200 34.567001 # 1 UNK
1637 1 1 0.000000 35.610500 3.380390 29.685200 # 1 UNK
1638 1 1 0.000000 45.891701 46.899601 31.854700 # 1 UNK
1639 1 1 0.000000 6.185200 9.403690 24.357201 # 1 UNK
1640 1 1 0.000000 37.547901 13.534800 27.723400 # 1 UNK
1641 1 1 0.000000 17.719101 20.525900 27.975000 # 1 UNK
1642 1 1 0.000000 14.211000 6.354120 29.092100 # 1 UNK
1643 1 1 0.000000 13.746400 12.328700 27.372999 # 1 UNK
1644 1 1 0.000000 11.163600 13.349100 34.241600 # 1 UNK
1645 1 1 0.000000 16.484900 9.675640 39.369900 # 1 UNK
1646 1 1 0.000000 28.816099 13.777400 39.103500 # 1 UNK
1647 1 1 0.000000 14.981100 9.965170 44.449501 # 1 UNK
1648 1 1 0.000000 7.260770 10.110200 44.694401 # 1 UNK
1649 1 1 0.000000 3.546500 39.772800 27.007401 # 1 UNK
1650 1 1 0.000000 27.256300 37.434502 32.488800 # 1 UNK
1651 1 1 0.000000 19.702801 6.096520 31.567200 # 1 UNK
1652 1 1 0.000000 12.738900 14.836400 46.169201 # 1 UNK
1653 1 1 0.000000 13.083800 2.551570 25.724800 # 1 UNK
1654 1 1 0.000000 14.727100 17.208799 27.612499 # 1 UNK
1655 1 1 0.000000 4.709030 40.840302 32.855202 # 1 UNK
1656 1 1 0.000000 20.710699 16.946899 24.247801 # 1 UNK
1657 1 1 0.000000 40.005901 7.221170 1.680570 # 1 UNK
1658 1 1 0.000000 31.957800 16.455000 31.634001 # 1 UNK
1659 1 1 0.000000 1.275400 10.241900 25.721300 # 1 UNK
1660 1 1 0.000000 4.401930 26.901199 33.584499 # 1 UNK
1661 1 1 0.000000 34.623199 22.975300 31.130501 # 1 UNK
1662 1 1 0.000000 26.385300 11.859200 26.614500 # 1 UNK
1663 1 1 0.000000 23.001301 37.363701 27.932800 # 1 UNK
1664 1 1 0.000000 9.230360 0.715682 34.272598 # 1 UNK
1665 1 1 0.000000 22.737499 23.829500 34.901001 # 1 UNK
1666 1 1 0.000000 6.640790 11.839600 46.731701 # 1 UNK
1667 1 1 0.000000 16.613100 12.024100 32.133801 # 1 UNK
1668 1 1 0.000000 29.217899 46.532799 40.825298 # 1 UNK
1669 1 1 0.000000 27.932199 9.583200 26.139200 # 1 UNK
1670 1 1 0.000000 7.506460 2.861060 32.577702 # 1 UNK
1671 1 1 0.000000 20.721701 8.612390 0.207496 # 1 UNK
1672 1 1 0.000000 0.455962 25.693199 37.775002 # 1 UNK
1673 1 1 0.000000 25.251900 4.617030 31.890800 # 1 UNK
1674 1 1 0.000000 14.458300 38.266201 46.934200 # 1 UNK
1675 1 1 0.000000 27.822300 22.992500 44.540401 # 1 UNK
1676 1 1 0.000000 28.442600 8.776310 36.531502 # 1 UNK
1677 1 1 0.000000 0.055062 35.109100 42.212502 # 1 UNK
1678 1 1 0.000000 40.550999 19.651400 33.121498 # 1 UNK
1679 1 1 0.000000 12.942200 46.054798 41.775902 # 1 UNK
1680 1 1 0.000000 22.926901 6.829930 43.755798 # 1 UNK
1681 1 1 0.000000 3.861900 10.032500 28.710699 # 1 UNK
1682 1 1 0.000000 11.586500 40.968498 36.681301 # 1 UNK
1683 1 1 0.000000 25.098700 8.875540 33.123100 # 1 UNK
1684 1 1 0.000000 20.624201 4.349730 24.682800 # 1 UNK
1685 1 1 0.000000 32.299301 12.631600 33.415699 # 1 UNK
1686 1 1 0.000000 9.295360 8.135740 45.073601 # 1 UNK
1687 1 1 0.000000 32.255798 43.525902 40.310799 # 1 UNK
1688 1 1 0.000000 21.166700 11.210100 44.574600 # 1 UNK
1689 1 1 0.000000 7.347010 32.014400 39.725101 # 1 UNK
1690 1 1 0.000000 22.721701 0.347476 37.308998 # 1 UNK
1691 1 1 0.000000 7.115790 9.946120 36.240299 # 1 UNK
1692 1 1 0.000000 19.639500 8.550240 28.170300 # 1 UNK
1693 1 1 0.000000 20.144100 18.523399 34.202202 # 1 UNK
1694 1 1 0.000000 19.211700 15.440800 43.367599 # 1 UNK
1695 1 1 0.000000 22.708500 36.257900 34.353401 # 1 UNK
1696 1 1 0.000000 4.848430 16.248400 43.442001 # 1 UNK
1697 1 1 0.000000 10.086600 4.226840 45.714001 # 1 UNK
1698 1 1 0.000000 11.387800 9.182840 46.506199 # 1 UNK
1699 1 1 0.000000 26.589100 30.922899 41.756302 # 1 UNK
1700 1 1 0.000000 35.061001 43.827801 46.009701 # 1 UNK
1701 1 1 0.000000 14.171500 7.049130 44.924999 # 1 UNK
1702 1 1 0.000000 0.362544 12.327400 46.990002 # 1 UNK
1703 1 1 0.000000 27.106400 10.107700 45.044998 # 1 UNK
1704 1 1 0.000000 8.917350 14.135200 24.416401 # 1 UNK
1705 1 1 0.000000 42.414200 36.268902 45.642700 # 1 UNK
1706 1 1 0.000000 16.360100 22.763901 39.108799 # 1 UNK
1707 1 1 0.000000 12.790200 12.827600 43.253101 # 1 UNK
1708 1 1 0.000000 41.274601 34.698299 26.420200 # 1 UNK
1709 1 1 0.000000 30.324400 24.025999 45.463799 # 1 UNK
1710 1 1 0.000000 14.620100 3.642840 45.190102 # 1 UNK
1711 1 1 0.000000 22.998501 0.147597 44.308998 # 1 UNK
1712 1 1 0.000000 11.972700 6.311150 30.941700 # 1 UNK
1713 1 1 0.000000 26.989401 4.599180 29.788700 # 1 UNK
1714 1 1 0.000000 6.695380 26.257099 37.131802 # 1 UNK
1715 1 1 0.000000 5.230080 44.348801 41.006802 # 1 UNK
1716 1 1 0.000000 6.912950 33.445702 33.478298 # 1 UNK
1717 1 1 0.000000 13.679800 38.726299 38.595100 # 1 UNK
1718 1 1 0.000000 2.332730 41.875599 29.648899 # 1 UNK
1719 1 1 0.000000 42.812901 20.855600 35.514000 # 1 UNK
1720 1 1 0.000000 14.406900 6.929750 31.840200 # 1 UNK
1721 1 1 0.000000 46.170799 32.456299 41.282398 # 1 UNK
1722 1 1 0.000000 39.004299 4.679350 42.477200 # 1 UNK
1723 1 1 0.000000 13.356500 19.762899 34.819698 # 1 UNK
1724 1 1 0.000000 18.139299 13.300600 34.030499 # 1 UNK
1725 1 1 0.000000 33.622002 46.015202 29.871599 # 1 UNK
1726 1 1 0.000000 5.709570 20.254200 42.446701 # 1 UNK
1727 1 1 0.000000 12.626400 18.807501 39.569199 # 1 UNK
1728 1 1 0.000000 4.164040 7.731120 0.360338 # 1 UNK
1729 1 1 0.000000 6.323920 39.192101 0.714500 # 1 UNK
1730 1 1 0.000000 44.912300 8.545130 28.551399 # 1 UNK
1731 1 1 0.000000 32.376400 21.934000 35.627701 # 1 UNK
1732 1 1 0.000000 6.655480 12.932100 25.629700 # 1 UNK
1733 1 1 0.000000 3.857290 33.119400 45.198002 # 1 UNK
1734 1 1 0.000000 21.570801 25.468201 30.934200 # 1 UNK
1735 1 1 0.000000 14.991800 25.022699 43.718201 # 1 UNK
1736 1 1 0.000000 10.552900 3.141250 24.760201 # 1 UNK
1737 1 1 0.000000 13.795000 8.524070 42.542099 # 1 UNK
1738 1 1 0.000000 36.762001 0.845599 32.937302 # 1 UNK
1739 1 1 0.000000 46.852402 17.262600 26.550800 # 1 UNK
1740 1 1 0.000000 0.739238 9.239430 39.271801 # 1 UNK
1741 1 1 0.000000 11.802200 16.452999 38.441200 # 1 UNK
1742 1 1 0.000000 37.100800 10.316200 34.152699 # 1 UNK
1743 1 1 0.000000 27.293200 4.991810 24.162701 # 1 UNK
1744 1 1 0.000000 35.219898 34.085201 46.394199 # 1 UNK
1745 1 1 0.000000 12.380100 15.688900 29.887501 # 1 UNK
1746 1 1 0.000000 25.797701 35.222301 34.988998 # 1 UNK
1747 1 1 0.000000 11.726900 11.959400 32.018398 # 1 UNK
1748 1 1 0.000000 8.052360 14.449800 31.778999 # 1 UNK
1749 1 1 0.000000 6.269550 14.625600 37.090599 # 1 UNK
1750 1 1 0.000000 18.152100 15.256800 0.448151 # 1 UNK
1751 1 1 0.000000 30.851299 13.666300 26.102301 # 1 UNK
1752 1 1 0.000000 45.304600 31.923599 31.604900 # 1 UNK
1753 1 1 0.000000 5.357310 44.734501 34.095100 # 1 UNK
1754 1 1 0.000000 20.289801 31.188999 0.635305 # 1 UNK
1755 1 1 0.000000 27.209499 27.527599 24.393700 # 1 UNK
1756 1 1 0.000000 46.920502 17.333200 36.930199 # 1 UNK
1757 1 1 0.000000 18.121201 44.308899 38.086300 # 1 UNK
1758 1 1 0.000000 18.540100 27.447800 42.480099 # 1 UNK
1759 1 1 0.000000 15.231500 20.834101 33.067902 # 1 UNK
1760 1 1 0.000000 13.704100 22.539400 40.204498 # 1 UNK
1761 1 1 0.000000 29.707300 18.306101 41.566002 # 1 UNK
1762 1 1 0.000000 13.699700 8.758370 26.716299 # 1 UNK
1763 1 1 0.000000 25.349800 18.637800 33.976700 # 1 UNK
1764 1 1 0.000000 27.797001 8.504290 30.261700 # 1 UNK
1765 1 1 0.000000 15.974600 4.726920 28.184099 # 1 UNK
1766 1 1 0.000000 38.472500 9.592500 28.118999 # 1 UNK
1767 1 1 0.000000 21.124300 34.126301 33.075199 # 1 UNK
1768 1 1 0.000000 26.064899 17.761000 43.571800 # 1 UNK
1769 1 1 0.000000 18.516001 39.159901 40.159199 # 1 UNK
1770 1 1 0.000000 31.637600 12.956400 38.990601 # 1 UNK
1771 1 1 0.000000 12.395100 11.005500 25.448200 # 1 UNK
1772 1 1 0.000000 41.668301 3.585320 34.396900 # 1 UNK
1773 1 1 0.000000 13.640200 16.878901 34.839199 # 1 UNK
1774 1 1 0.000000 28.268801 28.563200 29.649900 # 1 UNK
1775 1 1 0.000000 1.432580 4.075720 40.003700 # 1 UNK
1776 1 1 0.000000 15.096700 22.880800 27.062000 # 1 UNK
1777 1 1 0.000000 23.477600 12.637000 41.356098 # 1 UNK
1778 1 1 0.000000 20.760099 13.381400 41.476601 # 1 UNK
1779 1 1 0.000000 12.277000 2.867320 46.289600 # 1 UNK
1780 1 1 0.000000 30.004299 15.180500 0.516554 # 1 UNK
1781 1 1 0.000000 9.536700 38.585400 40.326199 # 1 UNK
1782 1 1 0.000000 7.350070 42.117901 40.400600 # 1 UNK
1783 1 1 0.000000 16.362000 15.328500 28.978600 # 1 UNK
1784 1 1 0.000000 23.296801 4.589090 38.756401 # 1 UNK
1785 1 1 0.000000 41.442001 2.429350 41.960400 # 1 UNK
1786 1 1 0.000000 4.402390 0.781094 29.890400 # 1 UNK
1787 1 1 0.000000 27.004101 2.515230 40.863602 # 1 UNK
1788 1 1 0.000000 26.571899 22.617399 30.028299 # 1 UNK
1789 1 1 0.000000 42.228401 0.458139 30.638800 # 1 UNK
1790 1 1 0.000000 46.764198 40.296299 39.833401 # 1 UNK
1791 1 1 0.000000 13.133100 30.361099 44.846500 # 1 UNK
1792 1 1 0.000000 19.026899 29.662399 26.221500 # 1 UNK
1793 1 1 0.000000 30.187300 46.856899 32.855099 # 1 UNK
1794 1 1 0.000000 9.165970 46.703499 25.684200 # 1 UNK
1795 1 1 0.000000 24.076300 29.505600 43.585800 # 1 UNK
1796 1 1 0.000000 9.285790 30.639400 26.980400 # 1 UNK
1797 1 1 0.000000 40.454601 43.457802 38.864799 # 1 UNK
1798 1 1 0.000000 37.418201 0.673844 38.028999 # 1 UNK
1799 1 1 0.000000 38.110600 30.309999 45.972301 # 1 UNK
1800 1 1 0.000000 25.507200 8.132400 39.746799 # 1 UNK
1801 1 1 0.000000 31.879700 8.333580 37.510399 # 1 UNK
1802 1 1 0.000000 16.790600 43.707500 31.177999 # 1 UNK
1803 1 1 0.000000 25.695700 5.337920 34.539200 # 1 UNK
1804 1 1 0.000000 22.311899 18.663300 45.148300 # 1 UNK
1805 1 1 0.000000 15.986800 26.989401 45.347401 # 1 UNK
1806 1 1 0.000000 24.244200 13.615300 31.426399 # 1 UNK
1807 1 1 0.000000 22.535900 16.835600 42.892300 # 1 UNK
1808 1 1 0.000000 39.518101 12.480400 32.947899 # 1 UNK
1809 1 1 0.000000 8.688220 40.389400 24.689199 # 1 UNK
1810 1 1 0.000000 13.797000 33.313301 29.293100 # 1 UNK
1811 1 1 0.000000 34.285900 32.023399 39.016300 # 1 UNK
1812 1 1 0.000000 22.438900 8.888640 33.874699 # 1 UNK
1813 1 1 0.000000 9.774860 20.064400 44.644798 # 1 UNK
1814 1 1 0.000000 17.603500 46.491100 30.284201 # 1 UNK
1815 1 1 0.000000 43.193600 8.429320 30.627501 # 1 UNK
1816 1 1 0.000000 16.548300 37.011299 30.611700 # 1 UNK
1817 1 1 0.000000 31.774500 21.218201 40.971199 # 1 UNK
1818 1 1 0.000000 3.839270 39.342899 42.533798 # 1 UNK
1819 1 1 0.000000 6.306790 4.202560 1.762850 # 1 UNK
1820 1 1 0.000000 20.502899 16.486099 36.037601 # 1 UNK
1821 1 1 0.000000 30.796600 8.610060 41.116001 # 1 UNK
1822 1 1 0.000000 30.273500 34.383099 26.571199 # 1 UNK
1823 1 1 0.000000 12.022700 41.279800 43.929001 # 1 UNK
1824 1 1 0.000000 0.957498 16.419901 39.075199 # 1 UNK
1825 1 1 0.000000 27.922899 7.556120 0.777253 # 1 UNK
1826 1 1 0.000000 4.240030 24.375999 40.421799 # 1 UNK
1827 1 1 0.000000 6.277820 22.379900 30.297701 # 1 UNK
1828 1 1 0.000000 38.609402 16.728701 39.789001 # 1 UNK
1829 1 1 0.000000 8.298520 28.933500 44.143902 # 1 UNK
1830 1 1 0.000000 4.188030 19.525999 0.252898 # 1 UNK
1831 1 1 0.000000 8.862840 19.483400 0.115458 # 1 UNK
1832 1 1 0.000000 3.643420 5.034140 34.404202 # 1 UNK
1833 1 1 0.000000 22.351101 45.217098 26.858299 # 1 UNK
1834 1 1 0.000000 7.962510 29.408800 41.405201 # 1 UNK
1835 1 1 0.000000 43.557098 46.575699 36.226200 # 1 UNK
1836 1 1 0.000000 21.899700 29.935101 26.864700 # 1 UNK
1837 1 1 0.000000 32.270802 10.118800 46.420200 # 1 UNK
1838 1 1 0.000000 41.551201 23.834000 46.489201 # 1 UNK
1839 1 1 0.000000 23.327000 10.468900 46.276699 # 1 UNK
1840 1 1 0.000000 9.958410 34.110298 41.221100 # 1 UNK
1841 1 1 0.000000 44.593800 9.289360 37.529900 # 1 UNK
1842 1 1 0.000000 28.350599 40.728500 28.587299 # 1 UNK
1843 1 1 0.000000 34.642399 41.342300 44.599400 # 1 UNK
1844 1 1 0.000000 14.274800 47.001801 33.473701 # 1 UNK
1845 1 1 0.000000 34.671501 7.782120 27.213699 # 1 UNK
1846 1 1 0.000000 41.248600 9.854570 31.657900 # 1 UNK
1847 1 1 0.000000 35.892899 10.209400 31.277901 # 1 UNK
1848 1 1 0.000000 25.375299 22.849300 34.557201 # 1 UNK
1849 1 1 0.000000 41.806999 15.983800 34.829601 # 1 UNK
1850 1 1 0.000000 34.790298 35.157501 27.772499 # 1 UNK
1851 1 1 0.000000 44.765701 23.654100 39.147999 # 1 UNK
1852 1 1 0.000000 18.904400 3.961580 43.950001 # 1 UNK
1853 1 1 0.000000 8.557150 19.074499 38.349499 # 1 UNK
1854 1 1 0.000000 44.462399 44.649601 31.830000 # 1 UNK
1855 1 1 0.000000 37.337601 8.458030 25.787399 # 1 UNK
1856 1 1 0.000000 43.868500 17.618299 26.811899 # 1 UNK
1857 1 1 0.000000 38.847801 40.964600 26.985701 # 1 UNK
1858 1 1 0.000000 32.916901 15.222600 34.054199 # 1 UNK
1859 1 1 0.000000 1.957110 39.450298 33.238602 # 1 UNK
1860 1 1 0.000000 34.600399 3.859890 24.932301 # 1 UNK
1861 1 1 0.000000 30.494200 27.695000 35.452499 # 1 UNK
1862 1 1 0.000000 38.133999 44.278000 28.705400 # 1 UNK
1863 1 1 0.000000 34.261799 7.781460 30.738600 # 1 UNK
1864 1 1 0.000000 16.577200 1.687800 32.308300 # 1 UNK
1865 1 1 0.000000 1.141920 32.367599 46.037899 # 1 UNK
1866 1 1 0.000000 42.508499 46.807598 26.104601 # 1 UNK
1867 1 1 0.000000 39.674400 2.424900 44.267899 # 1 UNK
1868 1 1 0.000000 45.557400 14.745400 29.591600 # 1 UNK
1869 1 1 0.000000 42.207001 42.451401 36.028900 # 1 UNK
1870 1 1 0.000000 32.136902 11.291100 31.113400 # 1 UNK
1871 1 1 0.000000 3.489000 45.714600 36.101898 # 1 UNK
1872 1 1 0.000000 45.436501 36.688999 36.312401 # 1 UNK
1873 1 1 0.000000 32.792301 17.310600 45.059200 # 1 UNK
1874 1 1 0.000000 0.523665 24.414600 34.198799 # 1 UNK
1875 1 1 0.000000 27.198000 6.109750 36.817402 # 1 UNK
1876 1 1 0.000000 25.393600 2.507030 33.691601 # 1 UNK
1877 1 1 0.000000 45.339100 37.114799 43.250702 # 1 UNK
1878 1 1 0.000000 34.526199 0.622439 27.824900 # 1 UNK
1879 1 1 0.000000 36.528702 41.413898 39.131500 # 1 UNK
1880 1 1 0.000000 32.091499 33.221600 40.203300 # 1 UNK
1881 1 1 0.000000 36.228001 2.426020 26.626699 # 1 UNK
1882 1 1 0.000000 26.997801 11.097700 31.113701 # 1 UNK
1883 1 1 0.000000 46.679798 46.918301 29.233299 # 1 UNK
1884 1 1 0.000000 35.528099 12.739300 35.591202 # 1 UNK
1885 1 1 0.000000 15.211600 18.309000 36.346199 # 1 UNK
1886 1 1 0.000000 4.169370 28.466600 29.832701 # 1 UNK
1887 1 1 0.000000 39.592300 3.590750 32.673801 # 1 UNK
1888 1 1 0.000000 33.914200 26.022400 30.234301 # 1 UNK
1889 1 1 0.000000 14.061800 2.821170 33.363201 # 1 UNK
1890 1 1 0.000000 27.095100 14.407100 36.992500 # 1 UNK
1891 1 1 0.000000 28.079201 25.049400 33.110401 # 1 UNK
1892 1 1 0.000000 31.118900 16.697100 29.021999 # 1 UNK
1893 1 1 0.000000 2.549380 0.363857 27.263700 # 1 UNK
1894 1 1 0.000000 15.336800 27.097700 31.248199 # 1 UNK
1895 1 1 0.000000 15.053900 6.649940 35.675598 # 1 UNK
1896 1 1 0.000000 16.498400 14.025500 39.259701 # 1 UNK
1897 1 1 0.000000 23.865499 43.675201 33.906502 # 1 UNK
1898 1 1 0.000000 3.890310 31.580299 41.661201 # 1 UNK
1899 1 1 0.000000 16.665600 27.615499 28.626400 # 1 UNK
1900 1 1 0.000000 45.493099 10.150000 25.823799 # 1 UNK
1901 1 1 0.000000 32.295898 28.255800 30.439400 # 1 UNK
1902 1 1 0.000000 9.230970 14.421500 27.221300 # 1 UNK
1903 1 1 0.000000 27.508801 3.534070 35.650398 # 1 UNK
1904 1 1 0.000000 13.475500 22.467899 31.470301 # 1 UNK
1905 1 1 0.000000 29.416300 29.284500 39.621799 # 1 UNK
1906 1 1 0.000000 45.119400 34.632801 38.222000 # 1 UNK
1907 1 1 0.000000 26.437500 19.546700 30.386600 # 1 UNK
1908 1 1 0.000000 34.500500 16.880600 41.720200 # 1 UNK
1909 1 1 0.000000 25.789000 36.630798 37.157902 # 1 UNK
1910 1 1 0.000000 5.953100 18.383400 38.361698 # 1 UNK
1911 1 1 0.000000 26.927900 18.095501 36.390598 # 1 UNK
1912 1 1 0.000000 21.074400 9.662630 30.042900 # 1 UNK
1913 1 1 0.000000 46.478001 4.133970 43.443100 # 1 UNK
1914 1 1 0.000000 21.791100 33.733898 41.022999 # 1 UNK
1915 1 1 0.000000 41.189400 16.185200 40.545200 # 1 UNK
1916 1 1 0.000000 12.015400 6.955040 39.693699 # 1 UNK
1917 1 1 0.000000 40.808102 14.985000 29.985201 # 1 UNK
1918 1 1 0.000000 18.100100 9.846150 31.011101 # 1 UNK
1919 1 1 0.000000 43.163200 14.799600 31.348499 # 1 UNK
1920 1 1 0.000000 8.867910 9.124950 30.965401 # 1 UNK
1921 1 1 0.000000 24.784800 44.371399 26.114901 # 1 UNK
1922 1 1 0.000000 29.438900 4.341450 31.029800 # 1 UNK
1923 1 1 0.000000 25.386200 40.691601 39.087200 # 1 UNK
1924 1 1 0.000000 15.890200 4.970280 24.020000 # 1 UNK
1925 1 1 0.000000 36.501301 22.969400 25.058701 # 1 UNK
1926 1 1 0.000000 41.655899 15.232500 46.277302 # 1 UNK
1927 1 1 0.000000 29.034201 43.016499 34.857700 # 1 UNK
1928 1 1 0.000000 27.897699 46.552502 28.358101 # 1 UNK
1929 1 1 0.000000 25.535299 34.328300 26.475599 # 1 UNK
1930 1 1 0.000000 14.231200 10.872000 35.936600 # 1 UNK
1931 1 1 0.000000 17.511700 35.411800 28.775600 # 1 UNK
1932 1 1 0.000000 29.917101 14.234300 32.603802 # 1 UNK
1933 1 1 0.000000 14.186600 5.205770 37.759499 # 1 UNK
1934 1 1 0.000000 4.885310 10.001500 43.280800 # 1 UNK
1935 1 1 0.000000 14.205300 34.598499 39.633099 # 1 UNK
1936 1 1 0.000000 40.370499 21.321600 30.271799 # 1 UNK
1937 1 1 0.000000 22.593700 8.011260 26.823999 # 1 UNK
1938 1 1 0.000000 1.062960 19.758499 26.943199 # 1 UNK
1939 1 1 0.000000 11.634500 20.356199 27.714701 # 1 UNK
1940 1 1 0.000000 22.880699 21.045900 27.664101 # 1 UNK
1941 1 1 0.000000 23.203300 15.919300 29.649200 # 1 UNK
1942 1 1 0.000000 28.944901 15.064500 30.279400 # 1 UNK
1943 1 1 0.000000 34.078701 43.371601 26.250999 # 1 UNK
1944 1 1 0.000000 23.942400 0.295213 34.946800 # 1 UNK
1945 1 1 0.000000 32.924999 7.285620 42.506500 # 1 UNK
1946 1 1 0.000000 4.479650 31.549200 38.915798 # 1 UNK
1947 1 1 0.000000 31.320000 45.847301 43.786900 # 1 UNK
1948 1 1 0.000000 39.224400 40.298199 24.288601 # 1 UNK
1949 1 1 0.000000 22.246901 35.601299 29.858801 # 1 UNK
1950 1 1 0.000000 10.227100 1.679370 39.708199 # 1 UNK
1951 1 1 0.000000 7.231870 45.339199 26.781099 # 1 UNK
1952 1 1 0.000000 31.840500 4.421540 29.785900 # 1 UNK
1953 1 1 0.000000 32.186600 40.238400 31.030001 # 1 UNK
1954 1 1 0.000000 18.464600 2.133810 40.577400 # 1 UNK
1955 1 1 0.000000 34.859402 46.232800 34.243099 # 1 UNK
1956 1 1 0.000000 37.318199 1.318960 28.851400 # 1 UNK
1957 1 1 0.000000 10.747800 40.106499 34.263901 # 1 UNK
1958 1 1 0.000000 34.361599 15.287000 46.651199 # 1 UNK
1959 1 1 0.000000 15.260300 44.490898 42.059502 # 1 UNK
1960 1 1 0.000000 31.493601 18.453199 34.569000 # 1 UNK
1961 1 1 0.000000 40.162399 45.659199 32.455799 # 1 UNK
1962 1 1 0.000000 29.498699 29.376900 24.934099 # 1 UNK
1963 1 1 0.000000 40.194599 38.686401 35.617500 # 1 UNK
1964 1 1 0.000000 38.045300 9.012570 46.415199 # 1 UNK
1965 1 1 0.000000 42.494301 9.746660 39.327801 # 1 UNK
1966 1 1 0.000000 14.115200 41.350899 42.229599 # 1 UNK
1967 1 1 0.000000 0.867667 5.109910 30.955500 # 1 UNK
1968 1 1 0.000000 25.373301 37.851200 34.257500 # 1 UNK
1969 1 1 0.000000 24.553200 29.215700 37.352798 # 1 UNK
1970 1 1 0.000000 13.365900 2.642350 38.892300 # 1 UNK
1971 1 1 0.000000 26.266800 44.520302 45.441799 # 1 UNK
1972 1 1 0.000000 26.398701 30.728300 30.872499 # 1 UNK
1973 1 1 0.000000 21.490499 45.080601 45.475300 # 1 UNK
1974 1 1 0.000000 18.509399 34.704300 36.077599 # 1 UNK
1975 1 1 0.000000 33.193001 2.215240 40.148998 # 1 UNK
1976 1 1 0.000000 0.871898 4.729090 34.106602 # 1 UNK
1977 1 1 0.000000 37.303600 0.738014 44.078201 # 1 UNK
1978 1 1 0.000000 22.165501 8.638640 38.787701 # 1 UNK
1979 1 1 0.000000 14.697400 16.577900 44.694599 # 1 UNK
1980 1 1 0.000000 26.799500 39.561600 35.877102 # 1 UNK
1981 1 1 0.000000 37.651699 3.118760 40.558601 # 1 UNK
1982 1 1 0.000000 43.808800 23.735201 26.579901 # 1 UNK
1983 1 1 0.000000 44.706100 2.698810 41.679699 # 1 UNK
1984 1 1 0.000000 37.311298 41.327702 44.146301 # 1 UNK
1985 1 1 0.000000 9.545590 0.761797 37.237598 # 1 UNK
1986 1 1 0.000000 37.465801 46.779202 40.475800 # 1 UNK
1987 1 1 0.000000 31.614201 9.359580 32.852200 # 1 UNK
1988 1 1 0.000000 13.397100 29.040501 28.797600 # 1 UNK
1989 1 1 0.000000 22.693100 19.065701 33.396702 # 1 UNK
1990 1 1 0.000000 28.206600 1.928870 27.632700 # 1 UNK
1991 1 1 0.000000 36.979801 34.191799 43.866501 # 1 UNK
1992 1 1 0.000000 36.642101 28.271999 43.528000 # 1 UNK
1993 1 1 0.000000 3.530210 8.118910 44.813599 # 1 UNK
1994 1 1 0.000000 43.507401 13.752900 38.083900 # 1 UNK
1995 1 1 0.000000 37.342999 5.975630 40.221199 # 1 UNK
1996 1 1 0.000000 19.701099 45.342098 31.606100 # 1 UNK
1997 1 1 0.000000 18.972900 46.533401 28.040800 # 1 UNK
1998 1 1 0.000000 21.557501 10.489000 26.969400 # 1 UNK
1999 1 1 0.000000 35.287899 43.127701 36.775902 # 1 UNK
2000 1 1 0.000000 30.213100 40.863300 36.174301 # 1 UNK
2001 1 1 0.000000 33.784500 20.308500 29.835100 # 1 UNK
2002 1 1 0.000000 35.476601 32.419701 33.869598 # 1 UNK
2003 1 1 0.000000 32.486599 9.287050 26.392900 # 1 UNK
2004 1 1 0.000000 19.484800 45.443699 36.123798 # 1 UNK
2005 1 1 0.000000 39.191002 16.819300 24.545200 # 1 UNK
2006 1 1 0.000000 41.699902 33.123600 24.386299 # 1 UNK
2007 1 1 0.000000 18.367300 29.636400 29.017700 # 1 UNK
2008 1 1 0.000000 19.726299 19.265499 29.864599 # 1 UNK
2009 1 1 0.000000 41.805500 30.740900 41.969200 # 1 UNK
2010 1 1 0.000000 24.590500 29.935600 27.628799 # 1 UNK
2011 1 1 0.000000 17.054399 7.541100 29.797701 # 1 UNK
2012 1 1 0.000000 23.450399 16.957100 40.019299 # 1 UNK
2013 1 1 0.000000 17.101700 37.025700 38.566601 # 1 UNK
2014 1 1 0.000000 1.225640 7.971260 42.325100 # 1 UNK
2015 1 1 0.000000 17.066299 40.970901 30.461000 # 1 UNK
2016 1 1 0.000000 14.442800 15.922100 32.343800 # 1 UNK
2017 1 1 0.000000 37.897598 44.985699 37.776199 # 1 UNK
2018 1 1 0.000000 0.182424 19.004101 39.148602 # 1 UNK
2019 1 1 0.000000 21.938900 40.885201 45.283001 # 1 UNK
2020 1 1 0.000000 22.475201 32.349602 31.445200 # 1 UNK
2021 1 1 0.000000 44.512402 39.535999 30.590300 # 1 UNK
2022 1 1 0.000000 10.432600 11.651700 29.362000 # 1 UNK
2023 1 1 0.000000 20.797199 34.922298 26.504801 # 1 UNK
2024 1 1 0.000000 15.818900 3.261650 37.347000 # 1 UNK
2025 1 1 0.000000 45.620499 13.861000 42.001099 # 1 UNK
2026 1 1 0.000000 37.333302 28.120899 40.840302 # 1 UNK
2027 1 1 0.000000 1.945280 12.053000 28.214899 # 1 UNK
2028 1 1 0.000000 24.860500 8.190260 45.030998 # 1 UNK
2029 1 1 0.000000 3.198560 18.224600 38.745098 # 1 UNK
2030 1 1 0.000000 7.021850 24.662399 45.694099 # 1 UNK
2031 1 1 0.000000 40.545399 1.759090 25.937599 # 1 UNK
2032 1 1 0.000000 40.905899 15.695400 43.166599 # 1 UNK
2033 1 1 0.000000 44.912899 16.467899 41.095100 # 1 UNK
2034 1 1 0.000000 1.487730 43.819599 33.962799 # 1 UNK
2035 1 1 0.000000 27.410601 18.197800 27.788500 # 1 UNK
2036 1 1 0.000000 30.114599 26.508499 0.189883 # 1 UNK
2037 1 1 0.000000 33.750198 24.792801 38.985699 # 1 UNK
2038 1 1 0.000000 40.813202 13.540600 35.394600 # 1 UNK
2039 1 1 0.000000 42.370098 21.783800 24.299700 # 1 UNK
2040 1 1 0.000000 34.756901 43.744701 39.424801 # 1 UNK
2041 1 1 0.000000 0.317683 46.014999 25.073900 # 1 UNK
2042 1 1 0.000000 24.286301 21.853001 25.272301 # 1 UNK
2043 1 1 0.000000 1.535770 23.496099 25.652599 # 1 UNK
2044 1 1 0.000000 33.405201 36.391998 44.601799 # 1 UNK
2045 1 1 0.000000 3.298330 45.511002 31.075701 # 1 UNK
2046 1 1 0.000000 20.204500 2.220400 45.558102 # 1 UNK
2047 1 1 0.000000 26.718700 29.551201 39.032200 # 1 UNK
2048 1 1 0.000000 45.075199 4.590830 24.558399 # 1 UNK
2049 1 1 0.000000 33.804199 2.594390 44.933800 # 1 UNK
2050 1 1 0.000000 17.840000 4.935360 41.112999 # 1 UNK
2051 1 1 0.000000 13.596800 15.621600 25.523001 # 1 UNK
2052 1 1 0.000000 6.795100 1.042500 25.948400 # 1 UNK
2053 1 1 0.000000 37.873798 19.489901 30.606001 # 1 UNK
2054 1 1 0.000000 14.125400 44.648300 31.129299 # 1 UNK
2055 1 1 0.000000 26.961599 12.649200 33.372200 # 1 UNK
2056 1 1 0.000000 36.435799 27.438601 33.258099 # 1 UNK
2057 1 1 0.000000 27.752100 0.642158 36.218300 # 1 UNK
2058 1 1 0.000000 26.689400 45.775101 37.683102 # 1 UNK
2059 1 1 0.000000 5.354360 0.382264 36.684299 # 1 UNK
2060 1 1 0.000000 41.805000 3.344620 0.297266 # 1 UNK
2061 1 1 0.000000 39.770000 10.107200 35.261600 # 1 UNK
2062 1 1 0.000000 11.177200 45.224602 39.257999 # 1 UNK
2063 1 1 0.000000 38.559399 39.487000 38.793499 # 1 UNK
2064 1 1 0.000000 35.602402 29.675200 39.313499 # 1 UNK
2065 1 1 0.000000 24.079300 7.286870 37.692101 # 1 UNK
2066 1 1 0.000000 9.695830 18.734501 32.693699 # 1 UNK
2067 1 1 0.000000 39.483002 32.231800 34.304001 # 1 UNK
2068 1 1 0.000000 33.309700 40.021301 41.936699 # 1 UNK
2069 1 1 0.000000 29.978201 10.044800 38.318901 # 1 UNK
2070 1 1 0.000000 35.398800 44.714401 28.148500 # 1 UNK
2071 1 1 0.000000 32.218700 16.927700 24.509100 # 1 UNK
2072 1 1 0.000000 8.436470 12.329100 35.653198 # 1 UNK
2073 1 1 0.000000 42.086102 12.726800 45.826099 # 1 UNK
2074 1 1 0.000000 40.411301 18.480101 29.808599 # 1 UNK
2075 1 1 0.000000 41.905701 44.523300 29.800800 # 1 UNK
2076 1 1 0.000000 31.803400 5.622410 37.001301 # 1 UNK
2077 1 1 0.000000 32.530201 6.526240 26.474501 # 1 UNK
2078 1 1 0.000000 12.488000 37.454300 31.374300 # 1 UNK
2079 1 1 0.000000 46.062401 20.318001 43.098598 # 1 UNK
2080 1 1 0.000000 35.878502 24.603100 44.242500 # 1 UNK
2081 1 1 0.000000 31.734100 10.480700 28.605600 # 1 UNK
2082 1 1 0.000000 8.378570 5.020980 25.177099 # 1 UNK
2083 1 1 0.000000 20.667000 29.947201 35.553398 # 1 UNK
2084 1 1 0.000000 2.576680 3.408880 32.519199 # 1 UNK
2085 1 1 0.000000 31.980101 6.688210 32.812698 # 1 UNK
2086 1 1 0.000000 35.438599 5.931600 28.845501 # 1 UNK
2087 1 1 0.000000 36.060799 1.306790 35.625500 # 1 UNK
2088 1 1 0.000000 32.379200 7.735780 28.660900 # 1 UNK
2089 1 1 0.000000 32.331699 29.271999 42.772099 # 1 UNK
2090 1 1 0.000000 35.104301 19.126499 27.664301 # 1 UNK
2091 1 1 0.000000 20.742399 24.517599 44.164398 # 1 UNK
2092 1 1 0.000000 41.022301 17.895201 36.768200 # 1 UNK
2093 1 1 0.000000 5.456110 6.577980 41.438000 # 1 UNK
2094 1 1 0.000000 29.207100 19.554100 38.882198 # 1 UNK
2095 1 1 0.000000 44.379601 13.739400 26.690599 # 1 UNK
2096 1 1 0.000000 21.310101 13.212600 35.342701 # 1 UNK
2097 1 1 0.000000 29.907101 26.511900 29.719801 # 1 UNK
2098 1 1 0.000000 16.723600 14.822500 42.054401 # 1 UNK
2099 1 1 0.000000 26.426201 46.925999 40.973999 # 1 UNK
2100 1 1 0.000000 17.149900 15.705300 33.008400 # 1 UNK
2101 1 1 0.000000 42.864201 19.988001 29.276501 # 1 UNK
2102 1 1 0.000000 39.722599 30.938400 29.706800 # 1 UNK
2103 1 1 0.000000 29.989799 36.058102 24.307400 # 1 UNK
2104 1 1 0.000000 38.203400 5.796400 28.258801 # 1 UNK
2105 1 1 0.000000 26.458599 43.447498 35.415901 # 1 UNK
2106 1 1 0.000000 20.241400 17.555401 41.736801 # 1 UNK
2107 1 1 0.000000 31.019899 2.629250 45.163601 # 1 UNK
2108 1 1 0.000000 4.878940 6.654550 38.392399 # 1 UNK
2109 1 1 0.000000 24.105801 23.309401 28.920900 # 1 UNK
2110 1 1 0.000000 25.697300 31.531500 36.089600 # 1 UNK
2111 1 1 0.000000 25.486700 12.140600 29.278099 # 1 UNK
2112 1 1 0.000000 15.933900 16.860100 24.733900 # 1 UNK
2113 1 1 0.000000 22.656601 15.364000 34.190601 # 1 UNK
2114 1 1 0.000000 21.626101 2.319210 35.434601 # 1 UNK
2115 1 1 0.000000 44.468498 40.708000 42.695499 # 1 UNK
2116 1 1 0.000000 39.084301 3.726900 36.530300 # 1 UNK
2117 1 1 0.000000 38.416599 13.669800 30.401400 # 1 UNK
2118 1 1 0.000000 36.654301 7.881880 42.405800 # 1 UNK
2119 1 1 0.000000 19.554199 19.495100 37.427601 # 1 UNK
2120 1 1 0.000000 46.978901 35.392899 44.888100 # 1 UNK
2121 1 1 0.000000 44.756599 28.383699 35.830299 # 1 UNK
2122 1 1 0.000000 43.940899 19.527800 0.213851 # 1 UNK
2123 1 1 0.000000 11.251700 24.251600 44.219898 # 1 UNK
2124 1 1 0.000000 42.795502 18.343500 31.486000 # 1 UNK
2125 1 1 0.000000 20.570000 43.050598 0.496283 # 1 UNK
2126 1 1 0.000000 38.330299 18.719700 43.772301 # 1 UNK
2127 1 1 0.000000 29.509199 33.477798 35.782398 # 1 UNK
2128 1 1 0.000000 33.235001 24.791000 27.193300 # 1 UNK
2129 1 1 0.000000 42.931702 29.581600 25.907101 # 1 UNK
2130 1 1 0.000000 6.712360 12.450900 28.818501 # 1 UNK
2131 1 1 0.000000 45.792198 6.571670 34.046398 # 1 UNK
2132 1 1 0.000000 30.527599 15.645300 37.539799 # 1 UNK
2133 1 1 0.000000 7.162490 10.010500 39.926201 # 1 UNK
2134 1 1 0.000000 35.698002 15.800600 34.540600 # 1 UNK
2135 1 1 0.000000 26.104700 11.064600 40.038601 # 1 UNK
2136 1 1 0.000000 27.503500 16.738800 24.207001 # 1 UNK
2137 1 1 0.000000 34.839199 28.466101 41.492401 # 1 UNK
2138 1 1 0.000000 8.901230 25.082600 38.148602 # 1 UNK
2139 1 1 0.000000 26.734600 0.971563 43.596802 # 1 UNK
2140 1 1 0.000000 21.426399 15.942800 45.142300 # 1 UNK
2141 1 1 0.000000 15.769700 28.454399 24.368299 # 1 UNK
2142 1 1 0.000000 37.693298 9.649070 39.000401 # 1 UNK
2143 1 1 0.000000 2.298860 35.363098 43.637501 # 1 UNK
2144 1 1 0.000000 0.519933 28.677500 44.717201 # 1 UNK
2145 1 1 0.000000 10.056300 38.325802 25.933001 # 1 UNK
2146 1 1 0.000000 37.678200 4.641620 25.891300 # 1 UNK
2147 1 1 0.000000 28.543301 14.779900 43.193699 # 1 UNK
2148 1 1 0.000000 29.162100 16.254700 40.004398 # 1 UNK
2149 1 1 0.000000 14.287100 10.905000 41.498100 # 1 UNK
2150 1 1 0.000000 1.322650 1.600560 38.710400 # 1 UNK
2151 1 1 0.000000 36.873100 43.428200 26.343399 # 1 UNK
2152 1 1 0.000000 45.325901 7.245640 45.842701 # 1 UNK
2153 1 1 0.000000 5.075990 7.601730 29.455900 # 1 UNK
2154 1 1 0.000000 33.683102 25.004000 36.293098 # 1 UNK
2155 1 1 0.000000 37.677799 14.356600 38.500198 # 1 UNK
2156 1 1 0.000000 23.867100 5.935110 41.029701 # 1 UNK
2157 1 1 0.000000 22.922899 11.508200 30.070801 # 1 UNK
2158 1 1 0.000000 5.921090 13.855800 44.987000 # 1 UNK
2159 1 1 0.000000 25.414000 6.908410 30.223600 # 1 UNK
2160 1 1 0.000000 20.153299 21.984600 30.053101 # 1 UNK
2161 1 1 0.000000 31.749500 15.860500 41.314602 # 1 UNK
2162 1 1 0.000000 16.296900 2.859880 25.999701 # 1 UNK
2163 1 1 0.000000 33.917400 13.466900 31.350901 # 1 UNK
2164 1 1 0.000000 19.729300 27.608500 34.287399 # 1 UNK
2165 1 1 0.000000 42.793999 37.165901 35.257900 # 1 UNK
2166 1 1 0.000000 39.803699 40.295799 29.615299 # 1 UNK
2167 1 1 0.000000 11.181300 21.997299 39.989601 # 1 UNK
2168 1 1 0.000000 0.076647 40.015999 31.120399 # 1 UNK
2169 1 1 0.000000 25.666100 35.750401 40.537601 # 1 UNK
2170 1 1 0.000000 45.606201 36.678501 29.595800 # 1 UNK
2171 1 1 0.000000 31.911100 20.058300 27.988001 # 1 UNK
2172 1 1 0.000000 4.548480 23.644199 26.375200 # 1 UNK
2173 1 1 0.000000 12.345900 26.425600 46.293598 # 1 UNK
2174 1 1 0.000000 24.153700 20.551800 35.359600 # 1 UNK
2175 1 1 0.000000 37.022202 21.200399 45.315800 # 1 UNK
2176 1 1 0.000000 46.018501 23.401100 44.763199 # 1 UNK
2177 1 1 0.000000 42.031300 7.027760 38.902302 # 1 UNK
2178 1 1 0.000000 17.187700 32.615700 34.271400 # 1 UNK
2179 1 1 0.000000 19.258699 10.700200 33.464600 # 1 UNK
2180 1 1 0.000000 44.577301 4.125620 33.541500 # 1 UNK
2181 1 1 0.000000 5.816510 33.348202 27.890301 # 1 UNK
2182 1 1 0.000000 30.042601 12.877400 41.432400 # 1 UNK
2183 1 1 0.000000 41.577999 9.474480 24.919399 # 1 UNK
2184 1 1 0.000000 33.729099 0.151478 42.692600 # 1 UNK
2185 1 1 0.000000 32.956100 41.124500 36.430500 # 1 UNK
2186 1 1 0.000000 32.187801 9.768340 43.502499 # 1 UNK
2187 1 1 0.000000 35.110600 6.730450 44.313000 # 1 UNK
2188 1 1 0.000000 31.635700 14.149400 43.274700 # 1 UNK
2189 1 1 0.000000 35.815498 14.267900 25.360600 # 1 UNK
2190 1 1 0.000000 40.985401 44.556301 43.366798 # 1 UNK
2191 1 1 0.000000 38.479099 10.825800 41.782200 # 1 UNK
2192 1 1 0.000000 38.578098 16.142300 44.911201 # 1 UNK
2193 1 1 0.000000 1.355000 10.626200 41.476799 # 1 UNK
2194 1 1 0.000000 19.635201 29.139000 22.589500 # 1 UNK
2195 1 1 0.000000 39.086201 19.582600 0.400610 # 1 UNK
2196 1 1 0.000000 34.575199 11.643100 29.336500 # 1 UNK
2197 1 1 0.000000 29.444300 24.986000 26.225700 # 1 UNK
2198 1 1 0.000000 27.530600 19.419701 0.343251 # 1 UNK
2199 1 1 0.000000 29.891899 24.749800 39.591202 # 1 UNK
2200 1 1 0.000000 37.246899 18.779301 41.504700 # 1 UNK
2201 1 1 0.000000 46.009399 43.859699 45.245998 # 1 UNK
2202 1 1 0.000000 19.768101 13.823300 31.851299 # 1 UNK
2203 1 1 0.000000 39.865398 31.022699 0.977816 # 1 UNK
2204 1 1 0.000000 4.856680 35.060101 42.516102 # 1 UNK
2205 1 1 0.000000 12.534400 24.350401 24.403200 # 1 UNK
2206 1 1 0.000000 3.604380 20.624201 44.605598 # 1 UNK
2207 1 1 0.000000 35.898300 7.013370 38.152199 # 1 UNK
2208 1 1 0.000000 12.254100 13.170500 38.103298 # 1 UNK
2209 1 1 0.000000 16.090099 11.875400 37.604599 # 1 UNK
2210 1 1 0.000000 19.523600 40.675098 32.431400 # 1 UNK
2211 1 1 0.000000 26.492300 14.672700 29.052500 # 1 UNK
2212 1 1 0.000000 22.311701 28.263700 31.181900 # 1 UNK
2213 1 1 0.000000 24.905899 19.328699 40.337502 # 1 UNK
2214 1 1 0.000000 12.871300 35.234501 33.076401 # 1 UNK
2215 1 1 0.000000 37.932301 18.560301 27.897100 # 1 UNK
2216 1 1 0.000000 13.662800 47.010201 39.312901 # 1 UNK
2217 1 1 0.000000 19.065399 36.808800 32.670300 # 1 UNK
2218 1 1 0.000000 21.965000 45.855099 33.843800 # 1 UNK
2219 1 1 0.000000 11.478200 5.049180 28.482700 # 1 UNK
2220 1 1 0.000000 36.925201 24.271700 40.612801 # 1 UNK
2221 1 1 0.000000 23.234600 37.839298 46.460701 # 1 UNK
2222 1 1 0.000000 20.141199 32.970901 39.115398 # 1 UNK
2223 1 1 0.000000 13.199000 39.234402 35.715698 # 1 UNK
2224 1 1 0.000000 21.942101 21.954201 39.491199 # 1 UNK
2225 1 1 0.000000 6.959190 18.150999 29.964600 # 1 UNK
2226 1 1 0.000000 45.861000 27.724400 38.449600 # 1 UNK
2227 1 1 0.000000 18.871599 15.814500 39.332100 # 1 UNK
2228 1 1 0.000000 7.346840 20.601801 34.218300 # 1 UNK
2229 1 1 0.000000 12.462700 22.847601 26.866501 # 1 UNK
2230 1 1 0.000000 9.769890 14.711700 29.957899 # 1 UNK
2231 1 1 0.000000 17.177200 13.848900 26.301300 # 1 UNK
2232 1 1 0.000000 37.877800 36.564201 26.448900 # 1 UNK
2233 1 1 0.000000 0.265873 14.053800 25.250999 # 1 UNK
2234 1 1 0.000000 27.180799 33.429298 43.391499 # 1 UNK
2235 1 1 0.000000 22.042200 2.151160 31.134501 # 1 UNK
2236 1 1 0.000000 8.364960 8.912470 42.397900 # 1 UNK
2237 1 1 0.000000 30.115999 30.312401 36.570202 # 1 UNK
2238 1 1 0.000000 27.953899 13.661700 26.020700 # 1 UNK
2239 1 1 0.000000 13.896000 31.484699 34.195099 # 1 UNK
2240 1 1 0.000000 38.274799 29.532499 32.523800 # 1 UNK
2241 1 1 0.000000 10.106300 26.441200 25.523899 # 1 UNK
2242 1 1 0.000000 0.812679 27.676300 33.437698 # 1 UNK
2243 1 1 0.000000 32.915199 16.917700 36.265800 # 1 UNK
2244 1 1 0.000000 7.326890 36.980999 35.148998 # 1 UNK
2245 1 1 0.000000 26.135900 32.826302 32.842602 # 1 UNK
2246 1 1 0.000000 25.148300 7.865070 26.042299 # 1 UNK
2247 1 1 0.000000 19.278400 39.291302 42.746101 # 1 UNK
2248 1 1 0.000000 21.244400 27.117300 41.142300 # 1 UNK
2249 1 1 0.000000 17.430500 43.847900 35.491501 # 1 UNK
2250 1 1 0.000000 38.091499 16.879700 35.272400 # 1 UNK
2251 1 1 0.000000 9.078790 22.469000 43.631001 # 1 UNK
2252 1 1 0.000000 44.335499 47.041000 42.966599 # 1 UNK
2253 1 1 0.000000 3.514100 12.013400 34.253601 # 1 UNK
2254 1 1 0.000000 1.791100 12.239000 23.512600 # 1 UNK
2255 1 1 0.000000 3.642230 21.981501 34.337101 # 1 UNK
2256 1 1 0.000000 7.022100 40.564499 29.900900 # 1 UNK
2257 1 1 0.000000 2.602250 36.800201 35.473301 # 1 UNK
2258 1 1 0.000000 1.337430 20.824200 41.763802 # 1 UNK
2259 1 1 0.000000 15.678200 10.539500 29.872101 # 1 UNK
2260 1 1 0.000000 7.302780 4.303690 41.142399 # 1 UNK
2261 1 1 0.000000 46.898399 13.776400 31.868299 # 1 UNK
2262 1 1 0.000000 39.188999 33.377998 38.554901 # 1 UNK
2263 1 1 0.000000 22.252800 36.667599 40.367100 # 1 UNK
2264 1 1 0.000000 35.691502 10.647500 46.479900 # 1 UNK
2265 1 1 0.000000 43.507801 38.286598 41.667000 # 1 UNK
2266 1 1 0.000000 38.442402 46.845402 26.096300 # 1 UNK
2267 1 1 0.000000 43.723000 2.579980 35.861198 # 1 UNK
2268 1 1 0.000000 16.057100 7.510660 0.016544 # 1 UNK
2269 1 1 0.000000 38.328400 26.552000 46.234798 # 1 UNK
2270 1 1 0.000000 5.949360 38.492500 38.849098 # 1 UNK
2271 1 1 0.000000 29.694300 16.931400 33.335800 # 1 UNK
2272 1 1 0.000000 5.205460 10.784000 38.213501 # 1 UNK
2273 1 1 0.000000 18.128000 34.743698 26.178499 # 1 UNK
2274 1 1 0.000000 20.197599 37.218498 30.115299 # 1 UNK
2275 1 1 0.000000 1.953300 42.229301 26.627399 # 1 UNK
2276 1 1 0.000000 20.025999 27.201500 44.793301 # 1 UNK
2277 1 1 0.000000 15.528300 38.968498 40.874001 # 1 UNK
2278 1 1 0.000000 10.995100 8.671600 25.573299 # 1 UNK
2279 1 1 0.000000 4.383200 40.776501 24.597500 # 1 UNK
2280 1 1 0.000000 46.072201 0.183734 38.349701 # 1 UNK
2281 1 1 0.000000 36.156799 36.571301 44.768398 # 1 UNK
2282 1 1 0.000000 6.952400 26.246901 34.177502 # 1 UNK
2283 1 1 0.000000 24.054399 45.703800 46.356701 # 1 UNK
2284 1 1 0.000000 40.679699 32.114201 26.753700 # 1 UNK
2285 1 1 0.000000 9.559980 37.102200 44.624901 # 1 UNK
2286 1 1 0.000000 16.138000 34.731201 37.604599 # 1 UNK
2287 1 1 0.000000 16.932899 25.059500 26.504999 # 1 UNK
2288 1 1 0.000000 12.211200 0.022336 26.058100 # 1 UNK
2289 1 1 0.000000 41.218399 23.410700 42.150600 # 1 UNK
2290 1 1 0.000000 2.511980 29.629200 27.736099 # 1 UNK
2291 1 1 0.000000 21.677099 36.785000 37.767601 # 1 UNK
2292 1 1 0.000000 2.781070 18.694099 29.137300 # 1 UNK
2293 1 1 0.000000 8.104070 27.860201 28.523701 # 1 UNK
2294 1 1 0.000000 7.534000 42.916698 27.830900 # 1 UNK
2295 1 1 0.000000 2.212400 17.803699 34.906399 # 1 UNK
2296 1 1 0.000000 11.678100 24.017500 32.663200 # 1 UNK
2297 1 1 0.000000 5.149390 35.262402 26.149700 # 1 UNK
2298 1 1 0.000000 45.714699 30.770100 34.221699 # 1 UNK
2299 1 1 0.000000 12.340800 43.219398 29.779301 # 1 UNK
2300 1 1 0.000000 12.160400 41.284698 32.009102 # 1 UNK
2301 1 1 0.000000 2.753250 33.567101 26.804399 # 1 UNK
2302 1 1 0.000000 24.086800 23.391500 46.651299 # 1 UNK
2303 1 1 0.000000 34.372299 44.348801 32.155701 # 1 UNK
2304 1 1 0.000000 37.342300 15.506700 32.407799 # 1 UNK
2305 1 1 0.000000 45.726101 37.558399 40.416698 # 1 UNK
2306 1 1 0.000000 10.605900 35.895199 26.932199 # 1 UNK
2307 1 1 0.000000 25.503799 14.836700 34.494499 # 1 UNK
2308 1 1 0.000000 39.348701 1.534120 34.554401 # 1 UNK
2309 1 1 0.000000 41.429901 1.230230 45.845402 # 1 UNK
2310 1 1 0.000000 44.891300 33.938400 29.561199 # 1 UNK
2311 1 1 0.000000 0.869798 43.904202 28.792801 # 1 UNK
2312 1 1 0.000000 29.621500 10.603600 31.235701 # 1 UNK
2313 1 1 0.000000 24.472500 34.160801 46.206600 # 1 UNK
2314 1 1 0.000000 22.020800 0.965443 26.885401 # 1 UNK
2315 1 1 0.000000 2.440460 7.367650 26.276501 # 1 UNK
2316 1 1 0.000000 13.984400 15.160000 39.087898 # 1 UNK
2317 1 1 0.000000 15.923000 40.588799 24.393101 # 1 UNK
2318 1 1 0.000000 40.084999 12.082300 26.353901 # 1 UNK
2319 1 1 0.000000 21.925400 11.287800 33.082802 # 1 UNK
2320 1 1 0.000000 18.357901 30.153000 41.393002 # 1 UNK
2321 1 1 0.000000 32.196999 40.276001 24.114799 # 1 UNK
2322 1 1 0.000000 29.860701 21.116301 24.260500 # 1 UNK
2323 1 1 0.000000 32.991100 45.871799 26.719801 # 1 UNK
2324 1 1 0.000000 3.495870 23.400400 38.058498 # 1 UNK
2325 1 1 0.000000 20.526300 14.689200 28.719801 # 1 UNK
2326 1 1 0.000000 15.929600 29.940100 33.173901 # 1 UNK
2327 1 1 0.000000 45.066101 15.322400 36.298302 # 1 UNK
2328 1 1 0.000000 34.727798 35.723598 30.444901 # 1 UNK
2329 1 1 0.000000 21.155800 41.190102 42.149300 # 1 UNK
2330 1 1 0.000000 9.165270 26.187799 35.741798 # 1 UNK
2331 1 1 0.000000 1.105890 34.501900 32.488899 # 1 UNK
2332 1 1 0.000000 31.476601 27.592800 32.760601 # 1 UNK
2333 1 1 0.000000 16.972200 24.834499 31.125200 # 1 UNK
2334 1 1 0.000000 34.973598 8.638870 33.400799 # 1 UNK
2335 1 1 0.000000 17.363701 16.671000 37.206402 # 1 UNK
2336 1 1 0.000000 41.640999 14.314700 27.249001 # 1 UNK
2337 1 1 0.000000 30.768499 21.556499 44.121498 # 1 UNK
2338 1 1 0.000000 36.995201 20.653601 26.359301 # 1 UNK
2339 1 1 0.000000 20.766001 36.068401 44.328602 # 1 UNK
2340 1 1 0.000000 42.158100 45.017399 24.167500 # 1 UNK
2341 1 1 0.000000 39.626301 40.294300 33.082600 # 1 UNK
2342 1 1 0.000000 2.228100 20.602699 31.516899 # 1 UNK
2343 1 1 0.000000 25.433100 31.894300 45.301998 # 1 UNK
2344 1 1 0.000000 24.022900 38.450600 30.183901 # 1 UNK
2345 1 1 0.000000 41.159599 6.291810 42.205002 # 1 UNK
2346 1 1 0.000000 39.889900 38.251400 26.060801 # 1 UNK
2347 1 1 0.000000 12.808500 20.734501 37.555000 # 1 UNK
2348 1 1 0.000000 2.807790 35.270699 41.021301 # 1 UNK
2349 1 1 0.000000 15.993300 31.306700 0.503644 # 1 UNK
2350 1 1 0.000000 28.021900 34.964802 45.387798 # 1 UNK
2351 1 1 0.000000 8.327440 35.307098 36.963799 # 1 UNK
2352 1 1 0.000000 34.535900 41.597000 31.334801 # 1 UNK
2353 1 1 0.000000 34.996601 19.638201 39.675701 # 1 UNK
2354 1 1 0.000000 18.012199 23.329300 24.617201 # 1 UNK
2355 1 1 0.000000 28.124300 33.229801 29.385300 # 1 UNK
2356 1 1 0.000000 38.422901 42.340900 30.557899 # 1 UNK
2357 1 1 0.000000 28.058500 36.397301 28.934299 # 1 UNK
2358 1 1 0.000000 4.051510 31.199800 0.338308 # 1 UNK
2359 1 1 0.000000 33.597000 6.104540 35.092701 # 1 UNK
2360 1 1 0.000000 24.775499 0.003479 26.147600 # 1 UNK
2361 1 1 0.000000 42.537399 23.223301 34.235100 # 1 UNK
2362 1 1 0.000000 21.206800 23.382200 37.138802 # 1 UNK
2363 1 1 0.000000 46.201302 0.832899 45.191200 # 1 UNK
2364 1 1 0.000000 6.170550 46.541599 45.297699 # 1 UNK
2365 1 1 0.000000 2.201700 21.098499 24.809799 # 1 UNK
2366 1 1 0.000000 46.291801 30.605801 43.331299 # 1 UNK
2367 1 1 0.000000 19.252701 12.936800 38.848400 # 1 UNK
2368 1 1 0.000000 37.690300 18.603300 33.202400 # 1 UNK
2369 1 1 0.000000 29.742100 21.666599 27.092199 # 1 UNK
2370 1 1 0.000000 12.891000 46.860600 36.659302 # 1 UNK
2371 1 1 0.000000 1.441530 46.414001 45.948898 # 1 UNK
2372 1 1 0.000000 15.004300 40.627300 33.567001 # 1 UNK
2373 1 1 0.000000 3.647910 37.235500 30.276100 # 1 UNK
2374 1 1 0.000000 8.534560 7.697820 0.737234 # 1 UNK
2375 1 1 0.000000 3.398440 37.658699 44.658901 # 1 UNK
2376 1 1 0.000000 27.567499 42.724701 42.207901 # 1 UNK
2377 1 1 0.000000 29.347799 32.418598 40.914501 # 1 UNK
2378 1 1 0.000000 17.637699 7.622080 36.130501 # 1 UNK
2379 1 1 0.000000 14.398400 38.323101 24.431900 # 1 UNK
2380 1 1 0.000000 24.285400 44.043900 38.800701 # 1 UNK
2381 1 1 0.000000 18.605101 31.081600 36.884800 # 1 UNK
2382 1 1 0.000000 43.701099 35.247101 32.563999 # 1 UNK
2383 1 1 0.000000 33.428902 20.688400 44.779099 # 1 UNK
2384 1 1 0.000000 6.165610 10.546300 33.909302 # 1 UNK
2385 1 1 0.000000 12.963400 33.629799 37.478100 # 1 UNK
2386 1 1 0.000000 5.226770 24.066500 32.718399 # 1 UNK
2387 1 1 0.000000 11.610000 34.208500 45.966499 # 1 UNK
2388 1 1 0.000000 35.275002 34.172100 25.328199 # 1 UNK
2389 1 1 0.000000 19.448999 1.142020 36.746601 # 1 UNK
2390 1 1 0.000000 11.816300 35.663399 35.716301 # 1 UNK
2391 1 1 0.000000 39.589199 19.437000 38.475399 # 1 UNK
2392 1 1 0.000000 42.866798 18.535900 34.155499 # 1 UNK
2393 1 1 0.000000 17.462200 20.121099 36.111500 # 1 UNK
2394 1 1 0.000000 21.615900 23.311600 27.636801 # 1 UNK
2395 1 1 0.000000 8.209080 3.706370 38.515598 # 1 UNK
2396 1 1 0.000000 18.511000 44.204700 40.815201 # 1 UNK
2397 1 1 0.000000 13.311800 7.718270 37.483200 # 1 UNK
2398 1 1 0.000000 1.896040 39.927399 37.950600 # 1 UNK
2399 1 1 0.000000 42.966400 37.260399 26.084200 # 1 UNK
2400 1 1 0.000000 36.988300 36.488899 28.833099 # 1 UNK
2401 1 1 0.000000 36.591400 12.859700 32.154202 # 1 UNK
2402 1 1 0.000000 13.527700 32.577400 46.849400 # 1 UNK
2403 1 1 0.000000 39.534901 36.182800 28.921700 # 1 UNK
2404 1 1 0.000000 24.723400 14.210100 45.795200 # 1 UNK
2405 1 1 0.000000 12.324700 1.393720 31.525200 # 1 UNK
2406 1 1 0.000000 15.474900 28.101900 41.906700 # 1 UNK
2407 1 1 0.000000 23.831400 21.431999 41.869900 # 1 UNK
2408 1 1 0.000000 25.381500 31.492100 25.700800 # 1 UNK
2409 1 1 0.000000 14.638700 46.945099 29.825500 # 1 UNK
2410 1 1 0.000000 3.243080 14.487600 28.027800 # 1 UNK
2411 1 1 0.000000 42.837502 3.361690 26.378500 # 1 UNK
2412 1 1 0.000000 23.859100 16.585800 37.410099 # 1 UNK
2413 1 1 0.000000 22.323000 43.263401 43.587200 # 1 UNK
2414 1 1 0.000000 29.547501 21.990900 39.785301 # 1 UNK
2415 1 1 0.000000 23.065201 11.091100 38.099899 # 1 UNK
2416 1 1 0.000000 42.896099 25.067200 32.022099 # 1 UNK
2417 1 1 0.000000 41.314602 28.646400 29.534201 # 1 UNK
2418 1 1 0.000000 32.011299 0.656855 38.153400 # 1 UNK
2419 1 1 0.000000 10.451200 29.558701 42.590801 # 1 UNK
2420 1 1 0.000000 22.025700 23.685801 41.846298 # 1 UNK
2421 1 1 0.000000 2.825460 18.094601 44.953300 # 1 UNK
2422 1 1 0.000000 9.281460 29.599199 34.408699 # 1 UNK
2423 1 1 0.000000 30.331900 39.767101 33.707699 # 1 UNK
2424 1 1 0.000000 24.954599 5.039790 43.433102 # 1 UNK
2425 1 1 0.000000 16.572701 38.980499 28.520800 # 1 UNK
2426 1 1 0.000000 12.696300 29.450899 38.637798 # 1 UNK
2427 1 1 0.000000 15.122000 32.162201 43.824699 # 1 UNK
2428 1 1 0.000000 4.574310 12.265100 27.333500 # 1 UNK
2429 1 1 0.000000 45.870800 32.296398 26.942200 # 1 UNK
2430 1 1 0.000000 39.185200 7.156450 38.387699 # 1 UNK
2431 1 1 0.000000 28.219801 27.626200 45.050499 # 1 UNK
2432 1 1 0.000000 15.907700 33.453899 27.518999 # 1 UNK
2433 1 1 0.000000 18.738001 22.822100 45.088902 # 1 UNK
2434 1 1 0.000000 27.550699 15.028400 45.644001 # 1 UNK
2435 1 1 0.000000 30.437799 36.473099 45.170101 # 1 UNK
2436 1 1 0.000000 21.756800 19.126499 39.047199 # 1 UNK
2437 1 1 0.000000 24.148500 21.061701 44.648602 # 1 UNK
2438 1 1 0.000000 9.047320 25.497900 40.760300 # 1 UNK
2439 1 1 0.000000 10.441200 16.173100 36.020000 # 1 UNK
2440 1 1 0.000000 32.588402 18.677999 41.266602 # 1 UNK
2441 1 1 0.000000 4.575160 26.173100 28.006599 # 1 UNK
2442 1 1 0.000000 15.701200 2.357750 40.170300 # 1 UNK
2443 1 1 0.000000 8.569380 1.883290 30.390699 # 1 UNK
2444 1 1 0.000000 46.988998 13.097800 34.426201 # 1 UNK
2445 1 1 0.000000 15.633200 36.230099 41.422401 # 1 UNK
2446 1 1 0.000000 40.765999 0.087863 36.283100 # 1 UNK
2447 1 1 0.000000 12.827900 9.036180 33.811298 # 1 UNK
2448 1 1 0.000000 31.057800 30.649900 29.802999 # 1 UNK
2449 1 1 0.000000 35.647999 30.329300 44.910900 # 1 UNK
2450 1 1 0.000000 21.406500 21.511000 45.490501 # 1 UNK
2451 1 1 0.000000 21.164200 30.851700 43.007702 # 1 UNK
2452 1 1 0.000000 27.497900 23.138500 38.722401 # 1 UNK
2453 1 1 0.000000 8.724510 44.521500 40.470402 # 1 UNK
2454 1 1 0.000000 40.117802 10.408600 38.281200 # 1 UNK
2455 1 1 0.000000 4.154190 16.676201 24.111700 # 1 UNK
2456 1 1 0.000000 9.064100 40.778000 41.870201 # 1 UNK
2457 1 1 0.000000 29.910801 13.629600 45.405201 # 1 UNK
2458 1 1 0.000000 31.357401 23.122900 25.537201 # 1 UNK
2459 1 1 0.000000 7.114710 2.246560 0.123069 # 1 UNK
2460 1 1 0.000000 11.843500 37.527699 46.388599 # 1 UNK
2461 1 1 0.000000 46.055599 7.890400 31.120701 # 1 UNK
2462 1 1 0.000000 8.956100 20.981800 41.191502 # 1 UNK
2463 1 1 0.000000 18.052000 14.174600 36.752602 # 1 UNK
2464 1 1 0.000000 23.261200 8.656900 31.179001 # 1 UNK
2465 1 1 0.000000 29.858801 7.660790 34.086399 # 1 UNK
2466 1 1 0.000000 42.317600 6.720030 35.958801 # 1 UNK
2467 1 1 0.000000 36.266701 26.539801 28.212900 # 1 UNK
2468 1 1 0.000000 4.176980 14.268000 25.423100 # 1 UNK
2469 1 1 0.000000 10.884900 36.381802 38.007500 # 1 UNK
2470 1 1 0.000000 29.887199 44.893200 36.510601 # 1 UNK
2471 1 1 0.000000 41.472599 25.995701 41.943401 # 1 UNK
2472 1 1 0.000000 44.588902 31.204201 0.066426 # 1 UNK
2473 1 1 0.000000 23.066799 14.302500 38.937000 # 1 UNK
2474 1 1 0.000000 13.801200 31.901199 39.799000 # 1 UNK
2475 1 1 0.000000 4.339360 40.548199 36.908798 # 1 UNK
2476 1 1 0.000000 5.879260 42.584801 37.809299 # 1 UNK
2477 1 1 0.000000 18.186300 13.602200 45.101601 # 1 UNK
2478 1 1 0.000000 22.217899 37.325199 31.928900 # 1 UNK
2479 1 1 0.000000 40.775299 40.304298 37.543900 # 1 UNK
2480 1 1 0.000000 36.363098 4.752960 36.575802 # 1 UNK
2481 1 1 0.000000 24.522800 36.331501 44.527302 # 1 UNK
2482 1 1 0.000000 7.018030 33.549999 24.451500 # 1 UNK
2483 1 1 0.000000 8.306000 14.087100 43.541599 # 1 UNK
2484 1 1 0.000000 13.971600 37.944599 33.484299 # 1 UNK
2485 1 1 0.000000 32.662102 43.686699 44.610901 # 1 UNK
2486 1 1 0.000000 8.229190 46.923901 39.472698 # 1 UNK
2487 1 1 0.000000 29.676201 41.822800 40.759102 # 1 UNK
2488 1 1 0.000000 27.727301 39.654400 40.385899 # 1 UNK
2489 1 1 0.000000 17.366800 41.970001 33.436100 # 1 UNK
2490 1 1 0.000000 11.029500 34.019699 29.684401 # 1 UNK
2491 1 1 0.000000 11.478400 26.844200 32.438301 # 1 UNK
2492 1 1 0.000000 4.870240 4.171550 42.977299 # 1 UNK
2493 1 1 0.000000 37.050999 4.811880 44.790600 # 1 UNK
2494 1 1 0.000000 8.721270 28.577600 24.612900 # 1 UNK
2495 1 1 0.000000 20.296000 32.720299 35.451000 # 1 UNK
2496 1 1 0.000000 26.314199 3.348610 26.213100 # 1 UNK
2497 1 1 0.000000 41.905499 37.101700 40.000702 # 1 UNK
2498 1 1 0.000000 38.104401 38.372101 30.693800 # 1 UNK
2499 1 1 0.000000 17.557501 7.380660 39.405899 # 1 UNK
2500 1 1 0.000000 35.487301 5.499890 31.480499 # 1 UNK
2501 1 1 0.000000 34.443699 21.130699 25.323400 # 1 UNK
2502 1 1 0.000000 38.666401 21.453199 32.443901 # 1 UNK
2503 1 1 0.000000 45.097698 39.220001 45.586498 # 1 UNK
2504 1 1 0.000000 20.682199 5.390320 42.327000 # 1 UNK
2505 1 1 0.000000 23.834299 2.594070 25.600800 # 1 UNK
2506 1 1 0.000000 45.337700 17.622299 32.342300 # 1 UNK
2507 1 1 0.000000 18.336399 32.560299 28.776400 # 1 UNK
2508 1 1 0.000000 21.497900 20.114700 41.648899 # 1 UNK
2509 1 1 0.000000 44.338402 14.576000 24.025101 # 1 UNK
2510 1 1 0.000000 24.951599 1.425710 45.443501 # 1 UNK
2511 1 1 0.000000 23.371000 42.103699 26.837500 # 1 UNK
2512 1 1 0.000000 0.160786 25.574400 28.664200 # 1 UNK
2513 1 1 0.000000 11.405600 25.296900 36.983601 # 1 UNK
2514 1 1 0.000000 28.212900 21.628799 42.153900 # 1 UNK
2515 1 1 0.000000 8.952790 14.740200 34.240700 # 1 UNK
2516 1 1 0.000000 22.072599 39.272202 25.965900 # 1 UNK
2517 1 1 0.000000 6.105150 2.403730 44.664200 # 1 UNK
2518 1 1 0.000000 32.223999 28.355101 24.214500 # 1 UNK
2519 1 1 0.000000 13.066600 35.791401 44.382198 # 1 UNK
2520 1 1 0.000000 4.807170 9.763050 31.095600 # 1 UNK
2521 1 1 0.000000 42.368801 3.136550 29.620199 # 1 UNK
2522 1 1 0.000000 6.442540 22.022600 44.959099 # 1 UNK
2523 1 1 0.000000 25.481800 16.409300 27.197201 # 1 UNK
2524 1 1 0.000000 34.550098 32.589699 43.826599 # 1 UNK
2525 1 1 0.000000 25.373501 25.749701 38.584599 # 1 UNK
2526 1 1 0.000000 22.582001 31.612101 39.181801 # 1 UNK
2527 1 1 0.000000 20.438801 6.030380 45.020302 # 1 UNK
2528 1 1 0.000000 30.064501 39.162800 44.542900 # 1 UNK
2529 1 1 0.000000 18.064800 21.889400 32.631500 # 1 UNK
2530 1 1 0.000000 3.083950 27.707701 39.249901 # 1 UNK
2531 1 1 0.000000 45.155102 27.041599 45.348701 # 1 UNK
2532 1 1 0.000000 45.434601 23.033600 35.307499 # 1 UNK
2533 1 1 0.000000 44.248199 43.341801 0.507596 # 1 UNK
2534 1 1 0.000000 38.022400 25.128700 33.764801 # 1 UNK
2535 1 1 0.000000 14.530200 44.175301 39.506100 # 1 UNK
2536 1 1 0.000000 2.365050 44.346901 38.260502 # 1 UNK
2537 1 1 0.000000 38.918800 22.854200 36.760201 # 1 UNK
2538 1 1 0.000000 24.644100 44.947300 31.339199 # 1 UNK
2539 1 1 0.000000 15.366100 34.738701 31.932899 # 1 UNK
2540 1 1 0.000000 37.746799 37.107399 39.987400 # 1 UNK
2541 1 1 0.000000 18.362499 37.303200 26.662500 # 1 UNK
2542 1 1 0.000000 11.476200 20.402300 25.090200 # 1 UNK
2543 1 1 0.000000 30.686001 4.586600 43.359001 # 1 UNK
2544 1 1 0.000000 0.458278 42.241199 41.506500 # 1 UNK
2545 1 1 0.000000 25.841900 15.450200 40.351700 # 1 UNK
2546 1 1 0.000000 20.837700 2.892510 41.425900 # 1 UNK
2547 1 1 0.000000 15.846300 5.330240 42.985298 # 1 UNK
2548 1 1 0.000000 26.453699 3.710430 45.187000 # 1 UNK
2549 1 1 0.000000 7.039790 34.568001 45.181702 # 1 UNK
2550 1 1 0.000000 10.814500 32.915401 26.100599 # 1 UNK
2551 1 1 0.000000 8.237450 4.680140 34.501202 # 1 UNK
2552 1 1 0.000000 9.589180 43.494202 44.667400 # 1 UNK
2553 1 1 0.000000 9.535670 18.462200 40.771801 # 1 UNK
2554 1 1 0.000000 37.795601 8.569880 32.160400 # 1 UNK
2555 1 1 0.000000 5.607280 26.189899 0.293442 # 1 UNK
2556 1 1 0.000000 32.501499 23.921499 43.522800 # 1 UNK
2557 1 1 0.000000 31.281200 25.241800 37.414398 # 1 UNK
2558 1 1 0.000000 11.263200 31.787901 38.342701 # 1 UNK
2559 1 1 0.000000 3.877640 23.226000 29.245701 # 1 UNK
2560 1 1 0.000000 15.418800 24.681900 40.891300 # 1 UNK
2561 1 1 0.000000 28.156200 34.937901 41.199402 # 1 UNK
2562 1 1 0.000000 0.621343 19.612801 33.845699 # 1 UNK
2563 1 1 0.000000 43.112000 12.141700 32.010799 # 1 UNK
2564 1 1 0.000000 20.446400 27.250700 37.228901 # 1 UNK
2565 1 1 0.000000 30.882700 11.997300 36.234200 # 1 UNK
2566 1 1 0.000000 4.077550 5.057970 24.749701 # 1 UNK
2567 1 1 0.000000 11.265000 46.266399 44.291100 # 1 UNK
2568 1 1 0.000000 16.790600 10.062900 35.371899 # 1 UNK
2569 1 1 0.000000 15.869600 17.975100 42.661098 # 1 UNK
2570 1 1 0.000000 25.810400 40.577702 28.985399 # 1 UNK
2571 1 1 0.000000 17.657200 28.377501 31.447399 # 1 UNK
2572 1 1 0.000000 40.024601 12.141400 44.181801 # 1 UNK
2573 1 1 0.000000 25.551901 8.680750 42.495300 # 1 UNK
2574 1 1 0.000000 9.524730 11.815500 42.775600 # 1 UNK
2575 1 1 0.000000 45.146599 29.726601 27.303900 # 1 UNK
2576 1 1 0.000000 20.468800 38.598900 45.409901 # 1 UNK
2577 1 1 0.000000 21.697399 3.530770 27.113400 # 1 UNK
2578 1 1 0.000000 4.471650 17.025200 31.179199 # 1 UNK
2579 1 1 0.000000 37.239700 18.925800 36.665699 # 1 UNK
2580 1 1 0.000000 46.995602 2.680880 35.903099 # 1 UNK
2581 1 1 0.000000 46.079201 18.993299 45.451302 # 1 UNK
2582 1 1 0.000000 44.446899 26.070200 40.303398 # 1 UNK
2583 1 1 0.000000 2.996140 28.748100 32.089901 # 1 UNK
2584 1 1 0.000000 22.375500 18.892000 26.314699 # 1 UNK
2585 1 1 0.000000 45.034199 42.384201 36.322899 # 1 UNK
2586 1 1 0.000000 10.696000 12.913600 40.284401 # 1 UNK
2587 1 1 0.000000 5.610140 25.373600 43.291199 # 1 UNK
2588 1 1 0.000000 2.163450 36.125500 27.737101 # 1 UNK
2589 1 1 0.000000 17.825800 4.392070 30.046000 # 1 UNK
2590 1 1 0.000000 34.947498 18.594900 43.695801 # 1 UNK
2591 1 1 0.000000 11.571400 31.559099 28.250601 # 1 UNK
2592 1 1 0.000000 24.565599 13.642500 36.614601 # 1 UNK
2593 1 1 0.000000 5.024980 3.053070 35.578800 # 1 UNK
2594 1 1 0.000000 16.569599 29.327999 37.979599 # 1 UNK
2595 1 1 0.000000 40.205700 3.622890 27.961399 # 1 UNK
2596 1 1 0.000000 11.463000 32.594601 32.167500 # 1 UNK
2597 1 1 0.000000 34.814201 28.595100 35.107899 # 1 UNK
2598 1 1 0.000000 45.737202 7.050540 26.283100 # 1 UNK
2599 1 1 0.000000 27.581600 19.452999 32.734600 # 1 UNK
2600 1 1 0.000000 23.372999 0.867551 39.879200 # 1 UNK
2601 1 1 0.000000 46.561401 25.200199 25.181601 # 1 UNK
2602 1 1 0.000000 9.489400 34.449501 43.914799 # 1 UNK
2603 1 1 0.000000 2.942880 44.867401 42.789200 # 1 UNK
2604 1 1 0.000000 33.759499 38.973900 45.895802 # 1 UNK
2605 1 1 0.000000 36.522598 37.860001 37.736401 # 1 UNK
2606 1 1 0.000000 8.327760 33.849499 31.150900 # 1 UNK
2607 1 1 0.000000 45.620399 4.672420 27.597401 # 1 UNK
2608 1 1 0.000000 10.264100 24.323400 27.213400 # 1 UNK
2609 1 1 0.000000 13.820300 22.463400 44.835201 # 1 UNK
2610 1 1 0.000000 27.013100 17.843700 39.164902 # 1 UNK
2611 1 1 0.000000 7.146680 14.628300 0.205593 # 1 UNK
2612 1 1 0.000000 32.461601 1.673790 29.438801 # 1 UNK
2613 1 1 0.000000 44.125702 19.205999 41.236698 # 1 UNK
2614 1 1 0.000000 43.336899 17.395100 39.178299 # 1 UNK
2615 1 1 0.000000 38.080299 30.470501 27.771400 # 1 UNK
2616 1 1 0.000000 46.498699 7.455380 36.562099 # 1 UNK
2617 1 1 0.000000 29.657900 44.136299 32.100300 # 1 UNK
2618 1 1 0.000000 16.059900 33.399899 45.924500 # 1 UNK
2619 1 1 0.000000 33.786800 10.782300 34.518299 # 1 UNK
2620 1 1 0.000000 5.065130 32.389801 30.272900 # 1 UNK
2621 1 1 0.000000 18.096300 46.785099 45.766899 # 1 UNK
2622 1 1 0.000000 33.968498 37.310799 40.287601 # 1 UNK
2623 1 1 0.000000 22.715200 21.529600 31.971001 # 1 UNK
2624 1 1 0.000000 17.852800 28.865101 35.731098 # 1 UNK
2625 1 1 0.000000 44.357700 30.491400 41.065498 # 1 UNK
2626 1 1 0.000000 34.462502 18.274900 32.197498 # 1 UNK
2627 1 1 0.000000 29.631399 46.723999 45.799400 # 1 UNK
2628 1 1 0.000000 0.054364 10.747100 33.144402 # 1 UNK
2629 1 1 0.000000 18.264799 3.085560 0.323364 # 1 UNK
2630 1 1 0.000000 15.830700 36.294701 26.701401 # 1 UNK
2631 1 1 0.000000 15.795300 37.984699 44.767502 # 1 UNK
2632 1 1 0.000000 8.820570 16.962700 23.959299 # 1 UNK
2633 1 1 0.000000 21.002399 43.167198 28.587601 # 1 UNK
2634 1 1 0.000000 44.203201 45.970402 27.973400 # 1 UNK
2635 1 1 0.000000 19.021000 24.145000 35.385201 # 1 UNK
2636 1 1 0.000000 6.664730 25.375999 39.669300 # 1 UNK
2637 1 1 0.000000 23.821699 37.374802 25.137600 # 1 UNK
2638 1 1 0.000000 0.442833 3.123990 25.797701 # 1 UNK
2639 1 1 0.000000 18.914700 19.083401 40.084099 # 1 UNK
2640 1 1 0.000000 19.096001 32.396000 31.568701 # 1 UNK
2641 1 1 0.000000 21.023600 39.841599 34.934299 # 1 UNK
2642 1 1 0.000000 42.864399 8.275920 42.602600 # 1 UNK
2643 1 1 0.000000 27.452499 2.293090 31.302601 # 1 UNK
2644 1 1 0.000000 37.045200 44.088501 34.526501 # 1 UNK
2645 1 1 0.000000 24.933701 26.287100 35.978600 # 1 UNK
2646 1 1 0.000000 33.217701 30.903400 33.532799 # 1 UNK
2647 1 1 0.000000 39.973900 46.118401 28.084600 # 1 UNK
2648 1 1 0.000000 12.646800 27.353800 26.669300 # 1 UNK
2649 1 1 0.000000 26.894100 41.598999 45.252201 # 1 UNK
2650 1 1 0.000000 15.333900 13.962200 44.201698 # 1 UNK
2651 1 1 0.000000 16.253401 9.342390 42.167099 # 1 UNK
2652 1 1 0.000000 33.746201 29.707199 37.250500 # 1 UNK
2653 1 1 0.000000 17.968599 32.917900 24.065500 # 1 UNK
2654 1 1 0.000000 32.264301 37.333500 30.555799 # 1 UNK
2655 1 1 0.000000 43.927898 42.616600 40.770901 # 1 UNK
2656 1 1 0.000000 23.760099 10.142800 25.168699 # 1 UNK
2657 1 1 0.000000 3.147170 12.666900 39.411999 # 1 UNK
2658 1 1 0.000000 26.080900 12.735900 43.779800 # 1 UNK
2659 1 1 0.000000 32.626301 32.852798 31.213900 # 1 UNK
2660 1 1 0.000000 7.778820 23.023399 27.858299 # 1 UNK
2661 1 1 0.000000 43.044998 10.886300 41.834099 # 1 UNK
2662 1 1 0.000000 16.598900 45.963299 24.009100 # 1 UNK
2663 1 1 0.000000 24.410700 17.931200 31.307699 # 1 UNK
2664 1 1 0.000000 20.333300 40.383900 24.004999 # 1 UNK
2665 1 1 0.000000 21.875601 43.951000 35.819401 # 1 UNK
2666 1 1 0.000000 31.660999 4.273730 40.854301 # 1 UNK
2667 1 1 0.000000 27.978500 26.589600 39.776501 # 1 UNK
2668 1 1 0.000000 15.441900 27.107100 39.364399 # 1 UNK
2669 1 1 0.000000 39.311798 21.914801 25.530800 # 1 UNK
2670 1 1 0.000000 15.814700 20.787100 41.720798 # 1 UNK
2671 1 1 0.000000 41.367298 9.691580 27.553400 # 1 UNK
2672 1 1 0.000000 39.525501 24.829800 30.347799 # 1 UNK
2673 1 1 0.000000 14.237900 39.412201 27.124800 # 1 UNK
2674 1 1 0.000000 18.252899 26.848301 0.497926 # 1 UNK
2675 1 1 0.000000 10.355600 15.621800 44.995499 # 1 UNK
2676 1 1 0.000000 37.404701 3.395640 34.366600 # 1 UNK
2677 1 1 0.000000 30.066299 9.550400 24.293800 # 1 UNK
2678 1 1 0.000000 27.138000 6.438910 45.218300 # 1 UNK
2679 1 1 0.000000 3.442680 21.462900 40.112999 # 1 UNK
2680 1 1 0.000000 44.540298 45.073700 25.483101 # 1 UNK
2681 1 1 0.000000 24.312201 12.255000 34.352600 # 1 UNK
2682 1 1 0.000000 20.252600 9.520740 42.425999 # 1 UNK
2683 1 1 0.000000 16.920700 45.271301 43.942200 # 1 UNK
2684 1 1 0.000000 35.480400 10.112700 36.439899 # 1 UNK
2685 1 1 0.000000 31.780001 30.894899 27.006701 # 1 UNK
2686 1 1 0.000000 14.337100 29.124701 36.502800 # 1 UNK
2687 1 1 0.000000 35.893002 12.615800 39.733799 # 1 UNK
2688 1 1 0.000000 41.481800 34.433300 39.586399 # 1 UNK
2689 1 1 0.000000 37.633598 16.019600 26.658001 # 1 UNK
2690 1 1 0.000000 45.664700 15.004700 45.367599 # 1 UNK
2691 1 1 0.000000 35.085300 38.178101 25.367701 # 1 UNK
2692 1 1 0.000000 19.339899 16.743900 30.822701 # 1 UNK
2693 1 1 0.000000 28.039900 40.557201 24.470600 # 1 UNK
2694 1 1 0.000000 26.196301 47.038200 30.659599 # 1 UNK
2695 1 1 0.000000 44.497002 26.447800 42.850101 # 1 UNK
2696 1 1 0.000000 30.134701 44.152802 42.051201 # 1 UNK
2697 1 1 0.000000 17.640900 19.420500 33.457401 # 1 UNK
2698 1 1 0.000000 2.590690 26.741699 46.873501 # 1 UNK
2699 1 1 0.000000 28.368799 28.049801 26.892799 # 1 UNK
2700 1 1 0.000000 25.468800 39.576599 26.409901 # 1 UNK
2701 1 1 0.000000 27.597500 25.785801 28.203600 # 1 UNK
2702 1 1 0.000000 33.875599 4.231940 38.502899 # 1 UNK
2703 1 1 0.000000 43.925999 28.512300 30.380301 # 1 UNK
2704 1 1 0.000000 34.999001 31.275299 29.337999 # 1 UNK
2705 1 1 0.000000 28.673401 36.505501 38.955101 # 1 UNK
2706 1 1 0.000000 35.150200 9.990770 25.673201 # 1 UNK
2707 1 1 0.000000 20.582100 19.633101 0.195177 # 1 UNK
2708 1 1 0.000000 24.559999 34.725498 38.456299 # 1 UNK
2709 1 1 0.000000 25.826401 28.508699 45.420101 # 1 UNK
2710 1 1 0.000000 0.669360 42.342701 37.245800 # 1 UNK
2711 1 1 0.000000 40.972599 25.533400 26.719700 # 1 UNK
2712 1 1 0.000000 23.985300 42.303799 36.478199 # 1 UNK
2713 1 1 0.000000 31.144400 17.769501 39.269600 # 1 UNK
2714 1 1 0.000000 45.520599 45.056900 40.772499 # 1 UNK
2715 1 1 0.000000 39.076401 22.316401 43.837799 # 1 UNK
2716 1 1 0.000000 32.142502 7.639030 0.602303 # 1 UNK
2717 1 1 0.000000 21.775000 32.638500 45.501701 # 1 UNK
2718 1 1 0.000000 4.157540 9.839690 26.085899 # 1 UNK
2719 1 1 0.000000 40.642700 24.469700 35.460602 # 1 UNK
2720 1 1 0.000000 36.524101 46.150002 30.353399 # 1 UNK
2721 1 1 0.000000 29.927500 10.882600 45.284500 # 1 UNK
2722 1 1 0.000000 11.693200 22.417500 46.430599 # 1 UNK
2723 1 1 0.000000 3.976280 43.629398 44.863400 # 1 UNK
2724 1 1 0.000000 34.867901 0.146128 45.262100 # 1 UNK
2725 1 1 0.000000 43.341400 12.331900 34.941299 # 1 UNK
2726 1 1 0.000000 13.248300 28.860500 31.744699 # 1 UNK
2727 1 1 0.000000 3.141220 25.585600 44.499599 # 1 UNK
2728 1 1 0.000000 17.977900 35.050201 44.952099 # 1 UNK
2729 1 1 0.000000 38.851501 22.333900 41.108601 # 1 UNK
2730 1 1 0.000000 40.108898 28.256599 42.822601 # 1 UNK
2731 1 1 0.000000 29.590700 11.465200 33.673901 # 1 UNK
2732 1 1 0.000000 35.962200 35.238701 41.440399 # 1 UNK
2733 1 1 0.000000 28.095600 4.097400 38.508900 # 1 UNK
2734 1 1 0.000000 29.755600 20.975599 33.938000 # 1 UNK
2735 1 1 0.000000 17.341999 39.711300 36.324299 # 1 UNK
2736 1 1 0.000000 9.785050 9.137430 28.282801 # 1 UNK
2737 1 1 0.000000 39.989101 46.738701 39.057701 # 1 UNK
2738 1 1 0.000000 18.165400 5.235750 33.963100 # 1 UNK
2739 1 1 0.000000 46.015301 2.592230 31.348600 # 1 UNK
2740 1 1 0.000000 27.716900 31.282000 46.862701 # 1 UNK
2741 1 1 0.000000 24.226801 40.128700 34.585098 # 1 UNK
2742 1 1 0.000000 27.786699 38.411800 42.752899 # 1 UNK
2743 1 1 0.000000 12.391300 43.437302 26.930901 # 1 UNK
2744 1 1 0.000000 33.113899 39.631100 28.420900 # 1 UNK
2745 1 1 0.000000 38.757401 34.586601 41.213001 # 1 UNK
2746 1 1 0.000000 41.418999 6.411380 30.788300 # 1 UNK
2747 1 1 0.000000 40.902401 16.725800 32.273899 # 1 UNK
2748 1 1 0.000000 18.395399 41.650398 25.627899 # 1 UNK
2749 1 1 0.000000 41.395401 31.559401 32.316502 # 1 UNK
2750 1 1 0.000000 38.676998 35.998501 31.874800 # 1 UNK
2751 1 1 0.000000 4.893300 14.381700 32.159901 # 1 UNK
2752 1 1 0.000000 15.797900 43.089199 46.956299 # 1 UNK
2753 1 1 0.000000 44.170601 40.888901 28.217600 # 1 UNK
2754 1 1 0.000000 32.405602 5.073180 23.994699 # 1 UNK
2755 1 1 0.000000 35.873402 22.895599 38.521000 # 1 UNK
2756 1 1 0.000000 29.427401 41.686501 30.728100 # 1 UNK
2757 1 1 0.000000 20.766199 1.457420 39.144699 # 1 UNK
2758 1 1 0.000000 30.040199 44.837002 27.592600 # 1 UNK
2759 1 1 0.000000 3.226380 16.681900 26.537800 # 1 UNK
2760 1 1 0.000000 43.396599 39.887100 25.845900 # 1 UNK
2761 1 1 0.000000 45.796700 21.041201 40.256699 # 1 UNK
2762 1 1 0.000000 14.030300 44.982800 24.605900 # 1 UNK
2763 1 1 0.000000 32.649502 36.824299 27.860001 # 1 UNK
2764 1 1 0.000000 9.952920 25.731100 29.751801 # 1 UNK
2765 1 1 0.000000 6.811240 36.907600 46.211102 # 1 UNK
2766 1 1 0.000000 15.371200 9.488560 32.502399 # 1 UNK
2767 1 1 0.000000 36.150501 40.651901 26.386999 # 1 UNK
2768 1 1 0.000000 0.412771 33.885601 25.431299 # 1 UNK
2769 1 1 0.000000 24.934999 43.009201 29.541700 # 1 UNK
2770 1 1 0.000000 21.982800 16.892401 31.727100 # 1 UNK
2771 1 1 0.000000 7.301490 45.240002 29.481600 # 1 UNK
2772 1 1 0.000000 1.970230 12.797900 36.712601 # 1 UNK
2773 1 1 0.000000 16.139700 45.080502 33.347099 # 1 UNK
2774 1 1 0.000000 19.202700 25.137100 39.333698 # 1 UNK
2775 1 1 0.000000 5.818520 28.378500 35.518501 # 1 UNK
2776 1 1 0.000000 3.457200 37.793098 39.965199 # 1 UNK
2777 1 1 0.000000 15.856200 19.940399 38.408199 # 1 UNK
2778 1 1 0.000000 6.291140 24.319099 24.434999 # 1 UNK
2779 1 1 0.000000 39.979301 4.967640 39.856602 # 1 UNK
2780 1 1 0.000000 45.806900 11.748300 28.316900 # 1 UNK
2781 1 1 0.000000 46.179199 43.028400 39.156200 # 1 UNK
2782 1 1 0.000000 12.758100 28.640699 41.332500 # 1 UNK
2783 1 1 0.000000 25.999001 29.186899 33.809799 # 1 UNK
2784 1 1 0.000000 35.521301 26.682699 46.287800 # 1 UNK
2785 1 1 0.000000 34.931999 25.101900 32.616798 # 1 UNK
2786 1 1 0.000000 35.926800 22.312300 35.555302 # 1 UNK
2787 1 1 0.000000 21.954300 14.437000 24.190800 # 1 UNK
2788 1 1 0.000000 0.071615 31.109600 37.402901 # 1 UNK
2789 1 1 0.000000 42.417099 19.606400 43.770000 # 1 UNK
2790 1 1 0.000000 31.879900 45.584400 34.643600 # 1 UNK
2791 1 1 0.000000 12.224800 27.738501 43.872501 # 1 UNK
2792 1 1 0.000000 44.583000 9.871060 45.380299 # 1 UNK
2793 1 1 0.000000 39.918201 12.977600 40.315701 # 1 UNK
2794 1 1 0.000000 41.905102 20.733400 38.125900 # 1 UNK
2795 1 1 0.000000 0.181359 16.884399 44.339298 # 1 UNK
2796 1 1 0.000000 3.282400 28.381500 44.918400 # 1 UNK
2797 1 1 0.000000 36.062901 23.349199 46.555500 # 1 UNK
2798 1 1 0.000000 41.083500 35.176102 35.136101 # 1 UNK
2799 1 1 0.000000 27.459600 11.878900 37.860298 # 1 UNK
2800 1 1 0.000000 2.051920 5.022020 44.201500 # 1 UNK
2801 1 1 0.000000 0.282560 37.712399 38.098499 # 1 UNK
2802 1 1 0.000000 29.077801 24.602301 35.672501 # 1 UNK
2803 1 1 0.000000 44.334301 31.177500 38.057400 # 1 UNK
2804 1 1 0.000000 45.058701 27.845699 33.013100 # 1 UNK
2805 1 1 0.000000 20.142000 42.402000 34.309299 # 1 UNK
2806 1 1 0.000000 39.382401 26.588699 39.763000 # 1 UNK
2807 1 1 0.000000 13.558700 45.652599 45.581699 # 1 UNK
2808 1 1 0.000000 20.986900 39.457001 28.420200 # 1 UNK
2809 1 1 0.000000 45.208900 20.966600 25.936300 # 1 UNK
2810 1 1 0.000000 32.502102 20.006300 0.398415 # 1 UNK
2811 1 1 0.000000 35.840500 10.405100 43.796101 # 1 UNK
2812 1 1 0.000000 6.198570 41.978001 34.762199 # 1 UNK
2813 1 1 0.000000 29.807400 8.685650 27.979401 # 1 UNK
2814 1 1 0.000000 40.549301 39.713799 41.830101 # 1 UNK
2815 1 1 0.000000 32.944801 38.438301 35.690800 # 1 UNK
2816 1 1 0.000000 18.979799 4.050690 27.522200 # 1 UNK
2817 1 1 0.000000 28.078400 36.835899 26.197901 # 1 UNK
2818 1 1 0.000000 16.033899 4.352630 32.440800 # 1 UNK
2819 1 1 0.000000 32.372002 22.496401 32.929600 # 1 UNK
2820 1 1 0.000000 3.731100 3.171650 45.440300 # 1 UNK
2821 1 1 0.000000 30.334101 46.775600 25.691000 # 1 UNK
2822 1 1 0.000000 41.782700 38.761299 0.401926 # 1 UNK
2823 1 1 0.000000 25.102900 32.547199 28.371799 # 1 UNK
2824 1 1 0.000000 6.467610 6.744700 35.908100 # 1 UNK
2825 1 1 0.000000 8.121470 45.214100 32.833900 # 1 UNK
2826 1 1 0.000000 30.547001 3.379470 27.574600 # 1 UNK
2827 1 1 0.000000 26.207399 23.234600 41.098301 # 1 UNK
2828 1 1 0.000000 28.149799 34.778000 33.042400 # 1 UNK
2829 1 1 0.000000 24.848101 42.500500 41.519699 # 1 UNK
2830 1 1 0.000000 41.903500 18.182501 24.952999 # 1 UNK
2831 1 1 0.000000 39.469898 28.740200 36.153900 # 1 UNK
2832 1 1 0.000000 23.768000 0.373421 32.291500 # 1 UNK
2833 1 1 0.000000 41.066898 33.267101 43.252602 # 1 UNK
2834 1 1 0.000000 13.260000 18.007900 42.697102 # 1 UNK
2835 1 1 0.000000 40.839901 26.674400 37.323101 # 1 UNK
2836 1 1 0.000000 26.689699 20.219601 44.549099 # 1 UNK
2837 1 1 0.000000 16.930599 41.011501 42.243099 # 1 UNK
2838 1 1 0.000000 29.789801 3.298610 0.372020 # 1 UNK
2839 1 1 0.000000 45.508400 11.822100 38.447399 # 1 UNK
2840 1 1 0.000000 31.181101 42.309399 38.045502 # 1 UNK
2841 1 1 0.000000 25.795200 25.878099 41.551800 # 1 UNK
2842 1 1 0.000000 14.041500 42.910500 44.610699 # 1 UNK
2843 1 1 0.000000 7.847200 36.957500 31.125799 # 1 UNK
2844 1 1 0.000000 21.977800 29.900900 45.979000 # 1 UNK
2845 1 1 0.000000 4.189400 2.175140 41.536701 # 1 UNK
2846 1 1 0.000000 2.544960 13.153500 44.064098 # 1 UNK
2847 1 1 0.000000 39.823200 33.808399 30.349001 # 1 UNK
2848 1 1 0.000000 15.143400 0.999476 27.392401 # 1 UNK
2849 1 1 0.000000 32.835201 2.174920 32.141399 # 1 UNK
2850 1 1 0.000000 14.225800 24.738100 38.407001 # 1 UNK
2851 1 1 0.000000 41.357101 24.355400 24.358900 # 1 UNK
2852 1 1 0.000000 26.720200 25.404900 44.143902 # 1 UNK
2853 1 1 0.000000 31.337500 44.731499 29.929800 # 1 UNK
2854 1 1 0.000000 16.272301 9.822100 27.146200 # 1 UNK
2855 1 1 0.000000 22.018600 26.210899 35.361500 # 1 UNK
2856 1 1 0.000000 40.177399 15.332600 37.897701 # 1 UNK
2857 1 1 0.000000 27.817301 45.387798 43.240700 # 1 UNK
2858 1 1 0.000000 27.727400 43.293598 0.448811 # 1 UNK
2859 1 1 0.000000 23.328199 29.915400 35.007702 # 1 UNK
2860 1 1 0.000000 42.247398 41.837502 30.112200 # 1 UNK
2861 1 1 0.000000 22.487600 26.884600 45.714001 # 1 UNK
2862 1 1 0.000000 30.279100 38.345200 0.267892 # 1 UNK
2863 1 1 0.000000 14.024600 42.434700 37.543301 # 1 UNK
2864 1 1 0.000000 38.931198 43.406399 44.810299 # 1 UNK
2865 1 1 0.000000 38.016800 38.029701 45.889400 # 1 UNK
2866 1 1 0.000000 34.351200 1.531210 37.804298 # 1 UNK
2867 1 1 0.000000 4.230940 33.927299 23.949800 # 1 UNK
2868 1 1 0.000000 17.797001 0.551718 25.697800 # 1 UNK
2869 1 1 0.000000 36.275700 36.022099 34.664001 # 1 UNK
2870 1 1 0.000000 4.822140 35.832600 36.631500 # 1 UNK
2871 1 1 0.000000 38.436798 16.712000 30.123400 # 1 UNK
2872 1 1 0.000000 35.800800 45.582500 25.454000 # 1 UNK
2873 1 1 0.000000 3.558080 46.935299 44.537601 # 1 UNK
2874 1 1 0.000000 44.842400 21.620199 28.667101 # 1 UNK
2875 1 1 0.000000 24.235600 25.954599 25.465099 # 1 UNK
2876 1 1 0.000000 13.917100 31.666800 26.997801 # 1 UNK
2877 1 1 0.000000 9.252360 6.277980 30.520500 # 1 UNK
2878 1 1 0.000000 42.889400 22.957899 29.976601 # 1 UNK
2879 1 1 0.000000 43.986698 9.546160 33.034901 # 1 UNK
2880 1 1 0.000000 22.997000 3.056790 46.102699 # 1 UNK
2881 1 1 0.000000 41.781200 22.254000 44.382301 # 1 UNK
2882 1 1 0.000000 0.706053 37.801102 46.256401 # 1 UNK
2883 1 1 0.000000 31.771700 31.229401 1.141530 # 1 UNK
2884 1 1 0.000000 10.074100 44.235199 30.843300 # 1 UNK
2885 1 1 0.000000 30.535700 8.148710 30.660700 # 1 UNK
2886 1 1 0.000000 33.247700 14.554600 37.804401 # 1 UNK
2887 1 1 0.000000 36.039101 41.569099 41.738300 # 1 UNK
2888 1 1 0.000000 32.700401 33.118599 26.014000 # 1 UNK
2889 1 1 0.000000 7.437670 36.393902 39.744099 # 1 UNK
2890 1 1 0.000000 10.271900 6.381680 35.306999 # 1 UNK
2891 1 1 0.000000 29.302999 33.557400 24.376101 # 1 UNK
2892 1 1 0.000000 24.306101 21.070101 38.241901 # 1 UNK
2893 1 1 0.000000 12.298900 36.668201 24.884899 # 1 UNK
2894 1 1 0.000000 28.769899 28.100401 33.116600 # 1 UNK
2895 1 1 0.000000 46.509998 27.848900 30.124800 # 1 UNK
2896 1 1 0.000000 1.388370 40.330200 43.662899 # 1 UNK
2897 1 1 0.000000 30.104000 39.942600 38.752300 # 1 UNK
2898 1 1 0.000000 36.081600 25.634899 25.581600 # 1 UNK
2899 1 1 0.000000 1.470790 23.347099 40.635101 # 1 UNK
2900 1 1 0.000000 27.834900 9.305520 33.050098 # 1 UNK
2901 1 1 0.000000 21.015900 39.075901 39.157398 # 1 UNK
2902 1 1 0.000000 43.078602 33.621700 45.195599 # 1 UNK
2903 1 1 0.000000 42.704399 11.003100 29.706100 # 1 UNK
2904 1 1 0.000000 9.251880 32.810799 0.088431 # 1 UNK
2905 1 1 0.000000 29.470699 42.191299 26.252399 # 1 UNK
2906 1 1 0.000000 39.601299 42.873100 0.435922 # 1 UNK
2907 1 1 0.000000 8.113410 32.214699 42.237701 # 1 UNK
2908 1 1 0.000000 46.899601 37.118401 25.884100 # 1 UNK
2909 1 1 0.000000 38.290600 30.761801 39.152699 # 1 UNK
2910 1 1 0.000000 20.975500 4.822890 33.592201 # 1 UNK
2911 1 1 0.000000 35.300598 39.967098 35.215000 # 1 UNK
2912 1 1 0.000000 18.818399 45.106400 25.395399 # 1 UNK
2913 1 1 0.000000 40.324501 34.467499 45.517300 # 1 UNK
2914 1 1 0.000000 9.724330 26.602301 45.802101 # 1 UNK
2915 1 1 0.000000 4.071570 15.838300 34.673599 # 1 UNK
2916 1 1 0.000000 32.337799 43.121399 0.244875 # 1 UNK
2917 1 1 0.000000 6.291820 21.220900 24.268999 # 1 UNK
2918 1 1 0.000000 5.266180 3.155240 30.864500 # 1 UNK
2919 1 1 0.000000 37.268299 32.636902 24.854500 # 1 UNK
2920 1 1 0.000000 30.066999 18.343100 0.583509 # 1 UNK
2921 1 1 0.000000 2.605050 4.552110 27.043100 # 1 UNK
2922 1 1 0.000000 37.823898 33.070400 0.106517 # 1 UNK
2923 1 1 0.000000 3.753210 34.323299 31.306400 # 1 UNK
2924 1 1 0.000000 13.973100 34.098999 24.490299 # 1 UNK
2925 1 1 0.000000 11.401200 13.659400 25.363100 # 1 UNK
2926 1 1 0.000000 1.124250 21.879700 45.445202 # 1 UNK
2927 1 1 0.000000 40.478699 39.164200 44.847099 # 1 UNK
2928 1 1 0.000000 8.839860 44.283401 0.429626 # 1 UNK
2929 1 1 0.000000 0.532475 3.309120 46.289299 # 1 UNK
2930 1 1 0.000000 17.965000 23.148399 29.054600 # 1 UNK
2931 1 1 0.000000 25.601700 15.116400 24.607700 # 1 UNK
2932 1 1 0.000000 24.916401 26.004601 46.205700 # 1 UNK
2933 1 1 0.000000 36.078400 13.223900 46.659199 # 1 UNK
2934 1 1 0.000000 38.630299 10.549900 30.625900 # 1 UNK
2935 1 1 0.000000 36.545399 1.991830 46.419399 # 1 UNK
2936 1 1 0.000000 30.590200 33.782600 44.970501 # 1 UNK
2937 1 1 0.000000 32.368198 23.726900 29.815399 # 1 UNK
2938 1 1 0.000000 38.090801 5.824920 32.916599 # 1 UNK
2939 1 1 0.000000 32.360199 36.424000 37.760899 # 1 UNK
2940 1 1 0.000000 32.954700 19.381300 37.517899 # 1 UNK
2941 1 1 0.000000 34.519501 10.338100 38.837700 # 1 UNK
2942 1 1 0.000000 43.446701 30.053101 32.736198 # 1 UNK
2943 1 1 0.000000 10.174100 38.216499 30.451000 # 1 UNK
2944 1 1 0.000000 7.999530 39.945801 44.257099 # 1 UNK
2945 1 2 0.000000 12.269900 6.350050 0.565078 # 2 UNK
2946 1 2 0.000000 18.180500 0.508402 6.447900 # 2 UNK
2947 1 2 0.000000 15.192700 0.477136 0.608410 # 2 UNK
2948 1 2 0.000000 21.092400 0.500042 0.455701 # 2 UNK
2949 1 2 0.000000 12.247800 3.429470 6.474950 # 2 UNK
2950 1 2 0.000000 12.274700 9.331020 6.351480 # 2 UNK
2951 1 2 0.000000 18.215099 6.316930 3.474560 # 2 UNK
2952 1 2 0.000000 18.211901 6.460060 9.351650 # 2 UNK
2953 1 2 0.000000 0.525105 18.190901 0.507730 # 2 UNK
2954 1 2 0.000000 6.351470 12.240600 6.376580 # 2 UNK
2955 1 2 0.000000 3.438760 12.233600 0.479311 # 2 UNK
2956 1 2 0.000000 9.347120 12.247500 0.605611 # 2 UNK
2957 1 2 0.000000 0.508600 15.175500 6.318790 # 2 UNK
2958 1 2 0.000000 0.534873 21.082701 6.503040 # 2 UNK
2959 1 2 0.000000 6.358960 18.259199 3.476040 # 2 UNK
2960 1 2 0.000000 6.343450 18.084400 9.347180 # 2 UNK
2961 1 2 0.000000 0.541709 6.323160 0.512509 # 2 UNK
2962 1 2 0.000000 6.291290 0.502419 6.413570 # 2 UNK
2963 1 2 0.000000 3.521960 0.571889 0.502018 # 2 UNK
2964 1 2 0.000000 9.237920 0.472190 0.610051 # 2 UNK
2965 1 2 0.000000 0.529958 3.447410 6.355910 # 2 UNK
2966 1 2 0.000000 0.477641 9.209600 6.332770 # 2 UNK
2967 1 2 0.000000 6.386280 6.344220 3.464990 # 2 UNK
2968 1 2 0.000000 6.386480 6.472810 9.326000 # 2 UNK
2969 1 2 0.000000 0.561517 6.299360 12.285700 # 2 UNK
2970 1 2 0.000000 6.374860 0.576641 18.198000 # 2 UNK
2971 1 2 0.000000 3.478490 0.482646 12.244600 # 2 UNK
2972 1 2 0.000000 9.236050 0.472216 12.213300 # 2 UNK
2973 1 2 0.000000 0.491440 3.436490 18.043400 # 2 UNK
2974 1 2 0.000000 0.404788 9.212270 18.185900 # 2 UNK
2975 1 2 0.000000 6.423450 6.403090 15.214100 # 2 UNK
2976 1 2 0.000000 6.468050 6.381200 21.144300 # 2 UNK
2977 1 2 0.000000 12.273700 18.204500 0.564596 # 2 UNK
2978 1 2 0.000000 18.190599 12.280200 6.380370 # 2 UNK
2979 1 2 0.000000 15.219500 12.314900 0.602785 # 2 UNK
2980 1 2 0.000000 21.123501 12.307300 0.473515 # 2 UNK
2981 1 2 0.000000 12.268300 15.209400 6.338820 # 2 UNK
2982 1 2 0.000000 12.250900 21.116400 6.486280 # 2 UNK
2983 1 2 0.000000 18.229300 18.229000 3.470370 # 2 UNK
2984 1 2 0.000000 18.234600 18.112900 9.354450 # 2 UNK
2985 1 2 0.000000 12.247700 6.394800 12.257000 # 2 UNK
2986 1 2 0.000000 18.111601 0.512224 18.144800 # 2 UNK
2987 1 2 0.000000 15.163300 0.468555 12.240400 # 2 UNK
2988 1 2 0.000000 21.096901 0.488854 12.355300 # 2 UNK
2989 1 2 0.000000 12.220500 3.445560 18.094500 # 2 UNK
2990 1 2 0.000000 12.295400 9.319900 18.243799 # 2 UNK
2991 1 2 0.000000 18.101101 6.470120 15.233000 # 2 UNK
2992 1 2 0.000000 18.091700 6.321960 21.113400 # 2 UNK
2993 1 2 0.000000 0.534064 18.104500 12.318000 # 2 UNK
2994 1 2 0.000000 6.402930 12.234600 18.189100 # 2 UNK
2995 1 2 0.000000 3.443140 12.157200 12.320200 # 2 UNK
2996 1 2 0.000000 9.315720 12.242300 12.209300 # 2 UNK
2997 1 2 0.000000 0.498422 15.152100 18.212200 # 2 UNK
2998 1 2 0.000000 0.537486 21.091700 18.106501 # 2 UNK
2999 1 2 0.000000 6.460800 18.093000 15.235200 # 2 UNK
3000 1 2 0.000000 6.462350 18.200600 21.110600 # 2 UNK
3001 1 2 0.000000 12.263000 18.124599 12.262500 # 2 UNK
3002 1 2 0.000000 18.128700 12.282900 18.204000 # 2 UNK
3003 1 2 0.000000 15.218300 12.269900 12.203100 # 2 UNK
3004 1 2 0.000000 21.093901 12.286700 12.376600 # 2 UNK
3005 1 2 0.000000 12.240100 15.221500 18.243299 # 2 UNK
3006 1 2 0.000000 12.246600 21.098301 18.090799 # 2 UNK
3007 1 2 0.000000 18.097700 18.102900 15.231000 # 2 UNK
3008 1 2 0.000000 18.113701 18.237101 21.114201 # 2 UNK
3009 1 2 0.000000 35.867298 6.351420 0.537839 # 2 UNK
3010 1 2 0.000000 41.812901 0.500561 6.385660 # 2 UNK
3011 1 2 0.000000 38.869598 0.458509 0.596500 # 2 UNK
3012 1 2 0.000000 44.586800 0.577937 0.482650 # 2 UNK
3013 1 2 0.000000 35.883801 3.445090 6.418810 # 2 UNK
3014 1 2 0.000000 35.883499 9.324440 6.342730 # 2 UNK
3015 1 2 0.000000 41.768700 6.319570 3.437970 # 2 UNK
3016 1 2 0.000000 41.742100 6.394660 9.318630 # 2 UNK
3017 1 2 0.000000 24.065201 18.203699 0.500180 # 2 UNK
3018 1 2 0.000000 29.920500 12.262700 6.375360 # 2 UNK
3019 1 2 0.000000 26.997601 12.249200 0.462410 # 2 UNK
3020 1 2 0.000000 32.901699 12.260700 0.596626 # 2 UNK
3021 1 2 0.000000 24.070499 15.226700 6.316120 # 2 UNK
3022 1 2 0.000000 24.056200 21.099501 6.502450 # 2 UNK
3023 1 2 0.000000 29.898600 18.237101 3.469610 # 2 UNK
3024 1 2 0.000000 29.887501 18.093000 9.350250 # 2 UNK
3025 1 2 0.000000 24.045700 6.363820 0.498283 # 2 UNK
3026 1 2 0.000000 29.920401 0.541112 6.434490 # 2 UNK
3027 1 2 0.000000 27.017799 0.552060 0.447000 # 2 UNK
3028 1 2 0.000000 32.915600 0.533474 0.612891 # 2 UNK
3029 1 2 0.000000 24.036600 3.466340 6.497670 # 2 UNK
3030 1 2 0.000000 24.038700 9.333570 6.310790 # 2 UNK
3031 1 2 0.000000 29.859600 6.349150 3.458120 # 2 UNK
3032 1 2 0.000000 29.861900 6.456890 9.348180 # 2 UNK
3033 1 2 0.000000 24.035299 6.431380 12.320400 # 2 UNK
3034 1 2 0.000000 29.975500 0.536654 18.129101 # 2 UNK
3035 1 2 0.000000 26.989901 0.555775 12.348500 # 2 UNK
3036 1 2 0.000000 32.916401 0.590912 12.225000 # 2 UNK
3037 1 2 0.000000 24.030001 3.451690 18.098700 # 2 UNK
3038 1 2 0.000000 24.036699 9.346320 18.250500 # 2 UNK
3039 1 2 0.000000 30.006300 6.461310 15.220400 # 2 UNK
3040 1 2 0.000000 30.001400 6.328750 21.108101 # 2 UNK
3041 1 2 0.000000 35.830799 18.185499 0.557298 # 2 UNK
3042 1 2 0.000000 41.756699 12.217400 6.379270 # 2 UNK
3043 1 2 0.000000 38.771500 12.246000 0.594847 # 2 UNK
3044 1 2 0.000000 44.653198 12.250600 0.476037 # 2 UNK
3045 1 2 0.000000 35.804501 15.200200 6.341350 # 2 UNK
3046 1 2 0.000000 35.825500 21.099899 6.493180 # 2 UNK
3047 1 2 0.000000 41.760201 18.225401 3.475070 # 2 UNK
3048 1 2 0.000000 41.766102 18.050100 9.349860 # 2 UNK
3049 1 2 0.000000 35.873402 6.401750 12.258700 # 2 UNK
3050 1 2 0.000000 41.730099 0.455796 18.057501 # 2 UNK
3051 1 2 0.000000 38.827400 0.575870 12.159300 # 2 UNK
3052 1 2 0.000000 44.600399 0.485359 12.274100 # 2 UNK
3053 1 2 0.000000 35.832100 3.461340 18.102699 # 2 UNK
3054 1 2 0.000000 35.875198 9.310370 18.236300 # 2 UNK
3055 1 2 0.000000 41.805000 6.287140 15.198700 # 2 UNK
3056 1 2 0.000000 41.753399 6.294900 21.088499 # 2 UNK
3057 1 2 0.000000 24.057600 18.125500 12.320500 # 2 UNK
3058 1 2 0.000000 29.976200 12.262800 18.201099 # 2 UNK
3059 1 2 0.000000 27.008400 12.248700 12.366200 # 2 UNK
3060 1 2 0.000000 32.887299 12.230200 12.208900 # 2 UNK
3061 1 2 0.000000 24.062901 15.212600 18.252800 # 2 UNK
3062 1 2 0.000000 24.064501 21.113800 18.096500 # 2 UNK
3063 1 2 0.000000 29.988800 18.068701 15.231500 # 2 UNK
3064 1 2 0.000000 29.982000 18.241800 21.109301 # 2 UNK
3065 1 2 0.000000 35.834801 18.106400 12.264800 # 2 UNK
3066 1 2 0.000000 41.716499 12.206100 18.179300 # 2 UNK
3067 1 2 0.000000 38.795700 12.220000 12.209400 # 2 UNK
3068 1 2 0.000000 44.650902 12.247400 12.325000 # 2 UNK
3069 1 2 0.000000 35.852100 15.203000 18.256500 # 2 UNK
3070 1 2 0.000000 35.842602 21.081900 18.081301 # 2 UNK
3071 1 2 0.000000 41.673302 18.050200 15.230100 # 2 UNK
3072 1 2 0.000000 41.647400 18.204901 21.103201 # 2 UNK
3073 1 2 0.000000 12.269700 29.924601 0.553442 # 2 UNK
3074 1 2 0.000000 18.190001 24.047100 6.445010 # 2 UNK
3075 1 2 0.000000 15.228100 24.052099 0.610424 # 2 UNK
3076 1 2 0.000000 21.098301 24.046499 0.439504 # 2 UNK
3077 1 2 0.000000 12.292900 26.995701 6.490770 # 2 UNK
3078 1 2 0.000000 12.301000 32.896198 6.336940 # 2 UNK
3079 1 2 0.000000 18.200899 29.859800 3.469820 # 2 UNK
3080 1 2 0.000000 18.197599 30.031300 9.349510 # 2 UNK
3081 1 2 0.000000 0.518402 41.828499 0.495690 # 2 UNK
3082 1 2 0.000000 6.356630 35.863098 6.383050 # 2 UNK
3083 1 2 0.000000 3.444130 35.839001 0.497955 # 2 UNK
3084 1 2 0.000000 9.327520 35.883202 0.587403 # 2 UNK
3085 1 2 0.000000 0.532174 38.826801 6.268510 # 2 UNK
3086 1 2 0.000000 0.530959 44.636398 6.503520 # 2 UNK
3087 1 2 0.000000 6.390010 41.713402 3.505190 # 2 UNK
3088 1 2 0.000000 6.305120 41.710098 9.363990 # 2 UNK
3089 1 2 0.000000 0.525153 29.924900 0.490242 # 2 UNK
3090 1 2 0.000000 6.365980 24.062799 6.445130 # 2 UNK
3091 1 2 0.000000 3.467630 24.063200 0.450149 # 2 UNK
3092 1 2 0.000000 9.330920 24.066700 0.623213 # 2 UNK
3093 1 2 0.000000 0.524385 27.014099 6.502270 # 2 UNK
3094 1 2 0.000000 0.528050 32.914902 6.260890 # 2 UNK
3095 1 2 0.000000 6.327660 29.898100 3.468680 # 2 UNK
3096 1 2 0.000000 6.345590 30.050900 9.349050 # 2 UNK
3097 1 2 0.000000 0.522477 29.989599 12.314000 # 2 UNK
3098 1 2 0.000000 6.421850 24.056700 18.143900 # 2 UNK
3099 1 2 0.000000 3.453310 24.081301 12.354800 # 2 UNK
3100 1 2 0.000000 9.343840 24.065701 12.227000 # 2 UNK
3101 1 2 0.000000 0.510028 26.999201 18.106501 # 2 UNK
3102 1 2 0.000000 0.561779 32.929001 18.225599 # 2 UNK
3103 1 2 0.000000 6.439950 30.039801 15.235800 # 2 UNK
3104 1 2 0.000000 6.464930 29.904600 21.115200 # 2 UNK
3105 1 2 0.000000 12.232600 41.746899 0.561165 # 2 UNK
3106 1 2 0.000000 18.182199 35.838299 6.378160 # 2 UNK
3107 1 2 0.000000 15.200100 35.867599 0.582168 # 2 UNK
3108 1 2 0.000000 21.110399 35.839500 0.458747 # 2 UNK
3109 1 2 0.000000 12.225800 38.767200 6.356410 # 2 UNK
3110 1 2 0.000000 12.251600 44.637100 6.461080 # 2 UNK
3111 1 2 0.000000 18.234600 41.763100 3.467550 # 2 UNK
3112 1 2 0.000000 18.201401 41.628201 9.361050 # 2 UNK
3113 1 2 0.000000 12.278600 29.981300 12.266600 # 2 UNK
3114 1 2 0.000000 18.129101 24.046801 18.140900 # 2 UNK
3115 1 2 0.000000 15.207700 24.038900 12.225700 # 2 UNK
3116 1 2 0.000000 21.112600 24.035299 12.361000 # 2 UNK
3117 1 2 0.000000 12.281000 27.006100 18.069099 # 2 UNK
3118 1 2 0.000000 12.283100 32.882900 18.265200 # 2 UNK
3119 1 2 0.000000 18.108299 30.024500 15.236900 # 2 UNK
3120 1 2 0.000000 18.111300 29.861700 21.114901 # 2 UNK
3121 1 2 0.000000 0.493640 41.699001 12.238700 # 2 UNK
3122 1 2 0.000000 6.407910 35.865002 18.206499 # 2 UNK
3123 1 2 0.000000 3.471070 35.803200 12.334100 # 2 UNK
3124 1 2 0.000000 9.320670 35.854000 12.230000 # 2 UNK
3125 1 2 0.000000 0.652299 38.848499 18.127701 # 2 UNK
3126 1 2 0.000000 0.570472 44.636501 18.198999 # 2 UNK
3127 1 2 0.000000 6.429930 41.676998 15.249300 # 2 UNK
3128 1 2 0.000000 6.334770 41.842300 21.127600 # 2 UNK
3129 1 2 0.000000 12.223200 41.691299 12.283600 # 2 UNK
3130 1 2 0.000000 18.124399 35.838299 18.214399 # 2 UNK
3131 1 2 0.000000 15.222100 35.857700 12.223100 # 2 UNK
3132 1 2 0.000000 21.090401 35.853600 12.373200 # 2 UNK
3133 1 2 0.000000 12.221700 38.787601 18.254700 # 2 UNK
3134 1 2 0.000000 12.258600 44.636299 18.136200 # 2 UNK
3135 1 2 0.000000 18.084400 41.640999 15.235500 # 2 UNK
3136 1 2 0.000000 18.084000 41.771000 21.126200 # 2 UNK
3137 1 2 0.000000 35.840302 29.900999 0.542292 # 2 UNK
3138 1 2 0.000000 41.736301 24.040001 6.443530 # 2 UNK
3139 1 2 0.000000 38.773998 24.042700 0.612936 # 2 UNK
3140 1 2 0.000000 44.636600 24.055300 0.452589 # 2 UNK
3141 1 2 0.000000 35.833500 26.977100 6.489430 # 2 UNK
3142 1 2 0.000000 35.824100 32.876202 6.318160 # 2 UNK
3143 1 2 0.000000 41.748798 29.847401 3.459740 # 2 UNK
3144 1 2 0.000000 41.761200 30.040501 9.336720 # 2 UNK
3145 1 2 0.000000 24.063000 41.736900 0.499679 # 2 UNK
3146 1 2 0.000000 29.909201 35.807598 6.363450 # 2 UNK
3147 1 2 0.000000 26.984200 35.795601 0.458972 # 2 UNK
3148 1 2 0.000000 32.891899 35.772900 0.569638 # 2 UNK
3149 1 2 0.000000 24.077499 38.765598 6.324580 # 2 UNK
3150 1 2 0.000000 24.068399 44.634499 6.508740 # 2 UNK
3151 1 2 0.000000 29.871401 41.771801 3.463230 # 2 UNK
3152 1 2 0.000000 29.893200 41.619400 9.339100 # 2 UNK
3153 1 2 0.000000 24.041201 29.899799 0.500559 # 2 UNK
3154 1 2 0.000000 29.913200 24.048201 6.446010 # 2 UNK
3155 1 2 0.000000 27.006599 24.074301 0.442911 # 2 UNK
3156 1 2 0.000000 32.875900 24.054600 0.598697 # 2 UNK
3157 1 2 0.000000 24.042000 26.997999 6.513310 # 2 UNK
3158 1 2 0.000000 24.026501 32.870899 6.315420 # 2 UNK
3159 1 2 0.000000 29.904400 29.835400 3.461900 # 2 UNK
3160 1 2 0.000000 29.892200 30.013100 9.348180 # 2 UNK
3161 1 2 0.000000 24.038900 29.971001 12.318900 # 2 UNK
3162 1 2 0.000000 29.971600 24.049101 18.136600 # 2 UNK
3163 1 2 0.000000 26.984900 24.056200 12.360500 # 2 UNK
3164 1 2 0.000000 32.894199 24.042101 12.226700 # 2 UNK
3165 1 2 0.000000 24.035299 26.986000 18.095400 # 2 UNK
3166 1 2 0.000000 24.032801 32.885399 18.253201 # 2 UNK
3167 1 2 0.000000 29.984200 30.007601 15.228700 # 2 UNK
3168 1 2 0.000000 29.999901 29.866100 21.114100 # 2 UNK
3169 1 2 0.000000 35.838501 41.744999 0.539571 # 2 UNK
3170 1 2 0.000000 41.738300 35.841499 6.347740 # 2 UNK
3171 1 2 0.000000 38.771500 35.928799 0.537448 # 2 UNK
3172 1 2 0.000000 44.670601 35.914600 0.484977 # 2 UNK
3173 1 2 0.000000 35.807999 38.751202 6.311170 # 2 UNK
3174 1 2 0.000000 35.798698 44.646301 6.462180 # 2 UNK
3175 1 2 0.000000 41.684700 41.665600 3.447870 # 2 UNK
3176 1 2 0.000000 41.714600 41.617500 9.278170 # 2 UNK
3177 1 2 0.000000 35.828800 29.964500 12.256500 # 2 UNK
3178 1 2 0.000000 41.682899 24.039101 18.136801 # 2 UNK
3179 1 2 0.000000 38.760201 24.026400 12.226600 # 2 UNK
3180 1 2 0.000000 44.654598 24.046301 12.353200 # 2 UNK
3181 1 2 0.000000 35.847301 26.991600 18.080999 # 2 UNK
3182 1 2 0.000000 35.842499 32.866901 18.241899 # 2 UNK
3183 1 2 0.000000 41.633801 29.993500 15.227300 # 2 UNK
3184 1 2 0.000000 41.642300 29.893000 21.105499 # 2 UNK
3185 1 2 0.000000 24.057501 41.666100 12.320300 # 2 UNK
3186 1 2 0.000000 29.964100 35.811600 18.205500 # 2 UNK
3187 1 2 0.000000 26.996599 35.802399 12.386900 # 2 UNK
3188 1 2 0.000000 32.864899 35.796200 12.200000 # 2 UNK
3189 1 2 0.000000 24.066900 38.753700 18.255199 # 2 UNK
3190 1 2 0.000000 24.056400 44.645500 18.099899 # 2 UNK
3191 1 2 0.000000 29.980801 41.620399 15.226700 # 2 UNK
3192 1 2 0.000000 29.989799 41.784401 21.107401 # 2 UNK
3193 1 2 0.000000 35.813999 41.679901 12.231300 # 2 UNK
3194 1 2 0.000000 41.685501 35.843300 18.172600 # 2 UNK
3195 1 2 0.000000 38.767399 35.837601 12.186900 # 2 UNK
3196 1 2 0.000000 44.644402 35.874599 12.338600 # 2 UNK
3197 1 2 0.000000 35.792301 38.767700 18.225700 # 2 UNK
3198 1 2 0.000000 35.876999 44.651001 18.075800 # 2 UNK
3199 1 2 0.000000 41.633202 41.621799 15.150200 # 2 UNK
3200 1 2 0.000000 41.582199 41.714500 21.054600 # 2 UNK
3201 1 2 0.000000 11.682200 6.162560 24.311501 # 2 UNK
3202 1 2 0.000000 8.639310 42.352600 31.853201 # 2 UNK
3203 1 2 0.000000 14.821800 0.919784 23.576799 # 2 UNK
3204 1 2 0.000000 21.065599 1.300130 23.821199 # 2 UNK
3205 1 2 0.000000 7.139290 39.276001 27.216200 # 2 UNK
3206 1 2 0.000000 4.882270 36.495499 33.406502 # 2 UNK
3207 1 2 0.000000 24.647301 9.837020 36.209400 # 2 UNK
3208 1 2 0.000000 6.058990 46.537601 42.909401 # 2 UNK
3209 1 2 0.000000 0.958598 18.095800 24.331200 # 2 UNK
3210 1 2 0.000000 6.703430 25.370800 29.961399 # 2 UNK
3211 1 2 0.000000 3.848740 12.070800 23.843901 # 2 UNK
3212 1 2 0.000000 9.537540 11.583100 23.333401 # 2 UNK
3213 1 2 0.000000 6.083110 12.483200 41.559502 # 2 UNK
3214 1 2 0.000000 5.178660 18.048500 41.106201 # 2 UNK
3215 1 2 0.000000 8.460860 28.409700 38.172901 # 2 UNK
3216 1 2 0.000000 2.577740 13.056100 31.448299 # 2 UNK
3217 1 2 0.000000 0.673180 6.155960 24.198900 # 2 UNK
3218 1 2 0.000000 40.197498 36.306198 43.448101 # 2 UNK
3219 1 2 0.000000 3.500550 0.560984 23.401400 # 2 UNK
3220 1 2 0.000000 9.649220 0.504691 23.554600 # 2 UNK
3221 1 2 0.000000 4.555950 43.674801 28.696199 # 2 UNK
3222 1 2 0.000000 1.039920 8.428250 28.838200 # 2 UNK
3223 1 2 0.000000 29.609100 17.092501 26.366301 # 2 UNK
3224 1 2 0.000000 10.445800 46.159401 28.160500 # 2 UNK
3225 1 2 0.000000 43.246601 0.585220 33.140301 # 2 UNK
3226 1 2 0.000000 46.267399 36.676800 33.377602 # 2 UNK
3227 1 2 0.000000 8.902580 11.520800 32.832199 # 2 UNK
3228 1 2 0.000000 41.358700 38.290100 28.625601 # 2 UNK
3229 1 2 0.000000 42.248299 41.608101 32.950100 # 2 UNK
3230 1 2 0.000000 35.148800 21.891100 42.441002 # 2 UNK
3231 1 2 0.000000 2.064040 8.956330 35.994099 # 2 UNK
3232 1 2 0.000000 6.834600 6.445780 44.723598 # 2 UNK
3233 1 2 0.000000 12.876700 17.828100 23.839600 # 2 UNK
3234 1 2 0.000000 14.492200 3.021360 30.174500 # 2 UNK
3235 1 2 0.000000 15.712300 12.258300 23.372400 # 2 UNK
3236 1 2 0.000000 20.601601 12.267400 23.135500 # 2 UNK
3237 1 2 0.000000 44.442299 21.100800 32.221699 # 2 UNK
3238 1 2 0.000000 10.118300 3.948160 32.015999 # 2 UNK
3239 1 2 0.000000 19.037701 16.686300 26.790600 # 2 UNK
3240 1 2 0.000000 1.657320 1.573140 30.402000 # 2 UNK
3241 1 2 0.000000 3.325030 42.549099 35.513199 # 2 UNK
3242 1 2 0.000000 20.787701 45.640598 37.840698 # 2 UNK
3243 1 2 0.000000 11.596900 2.418840 36.207100 # 2 UNK
3244 1 2 0.000000 12.409000 31.586300 42.170700 # 2 UNK
3245 1 2 0.000000 1.044170 1.846990 42.593498 # 2 UNK
3246 1 2 0.000000 8.415080 7.436690 38.021099 # 2 UNK
3247 1 2 0.000000 17.632099 7.925380 33.121700 # 2 UNK
3248 1 2 0.000000 25.408100 2.990200 37.431198 # 2 UNK
3249 1 2 0.000000 5.374810 28.028500 41.632702 # 2 UNK
3250 1 2 0.000000 7.035830 22.581100 40.696098 # 2 UNK
3251 1 2 0.000000 5.675870 5.991690 27.556200 # 2 UNK
3252 1 2 0.000000 41.320400 37.537800 32.034199 # 2 UNK
3253 1 2 0.000000 5.360250 3.720710 39.130001 # 2 UNK
3254 1 2 0.000000 18.083000 23.841299 42.575802 # 2 UNK
3255 1 2 0.000000 7.002920 23.011200 36.691299 # 2 UNK
3256 1 2 0.000000 7.468040 18.555500 44.493599 # 2 UNK
3257 1 2 0.000000 19.026400 30.170099 33.215801 # 2 UNK
3258 1 2 0.000000 12.205600 15.107400 41.740200 # 2 UNK
3259 1 2 0.000000 11.327700 9.956280 41.680801 # 2 UNK
3260 1 2 0.000000 6.072870 5.925300 32.432499 # 2 UNK
3261 1 2 0.000000 17.630699 11.560400 41.742802 # 2 UNK
3262 1 2 0.000000 12.796900 20.865000 42.391499 # 2 UNK
3263 1 2 0.000000 10.990800 16.125900 32.254398 # 2 UNK
3264 1 2 0.000000 18.444599 17.802000 45.250702 # 2 UNK
3265 1 2 0.000000 35.679100 6.624260 24.154699 # 2 UNK
3266 1 2 0.000000 26.650200 45.921902 33.627899 # 2 UNK
3267 1 2 0.000000 38.927299 0.663723 22.662500 # 2 UNK
3268 1 2 0.000000 44.784801 0.729615 23.343599 # 2 UNK
3269 1 2 0.000000 27.079500 6.418630 41.274899 # 2 UNK
3270 1 2 0.000000 35.618000 16.234600 29.587999 # 2 UNK
3271 1 2 0.000000 8.554760 34.428001 28.442600 # 2 UNK
3272 1 2 0.000000 10.701800 18.894100 36.305901 # 2 UNK
3273 1 2 0.000000 24.459000 19.082399 23.891899 # 2 UNK
3274 1 2 0.000000 22.966400 9.275270 41.769001 # 2 UNK
3275 1 2 0.000000 27.086201 12.290200 23.110201 # 2 UNK
3276 1 2 0.000000 33.153198 12.323500 22.968201 # 2 UNK
3277 1 2 0.000000 7.207450 17.199800 33.888699 # 2 UNK
3278 1 2 0.000000 12.597700 8.639740 29.842899 # 2 UNK
3279 1 2 0.000000 18.342199 6.732400 26.493500 # 2 UNK
3280 1 2 0.000000 37.350700 31.634001 42.219799 # 2 UNK
3281 1 2 0.000000 23.805901 6.485300 23.784901 # 2 UNK
3282 1 2 0.000000 35.535900 39.306301 29.153400 # 2 UNK
3283 1 2 0.000000 26.895399 0.513936 23.671801 # 2 UNK
3284 1 2 0.000000 32.856499 0.167143 23.497700 # 2 UNK
3285 1 2 0.000000 17.681000 7.132280 44.317001 # 2 UNK
3286 1 2 0.000000 18.190399 11.924300 29.226999 # 2 UNK
3287 1 2 0.000000 29.930901 0.797575 30.199900 # 2 UNK
3288 1 2 0.000000 32.775902 42.763100 28.460100 # 2 UNK
3289 1 2 0.000000 33.487400 34.670101 42.583698 # 2 UNK
3290 1 2 0.000000 27.808001 43.130299 38.769699 # 2 UNK
3291 1 2 0.000000 26.405399 41.389599 32.389599 # 2 UNK
3292 1 2 0.000000 31.686100 21.543501 37.644699 # 2 UNK
3293 1 2 0.000000 16.767401 46.901501 39.644299 # 2 UNK
3294 1 2 0.000000 29.982700 1.695290 42.512100 # 2 UNK
3295 1 2 0.000000 15.837800 1.209980 42.683102 # 2 UNK
3296 1 2 0.000000 29.777201 7.753350 45.294800 # 2 UNK
3297 1 2 0.000000 35.774601 18.423000 24.490999 # 2 UNK
3298 1 2 0.000000 37.528500 26.524099 37.107700 # 2 UNK
3299 1 2 0.000000 38.441502 12.364800 23.882900 # 2 UNK
3300 1 2 0.000000 44.756599 11.928000 22.911900 # 2 UNK
3301 1 2 0.000000 16.374100 18.844900 29.894300 # 2 UNK
3302 1 2 0.000000 35.915001 23.357700 27.749599 # 2 UNK
3303 1 2 0.000000 32.118401 28.065500 38.804699 # 2 UNK
3304 1 2 0.000000 45.754200 7.872710 41.469002 # 2 UNK
3305 1 2 0.000000 37.791500 33.791801 27.854601 # 2 UNK
3306 1 2 0.000000 37.793098 41.377300 36.555302 # 2 UNK
3307 1 2 0.000000 5.635940 0.466889 32.759499 # 2 UNK
3308 1 2 0.000000 43.685398 44.440201 37.586601 # 2 UNK
3309 1 2 0.000000 41.121399 5.550510 44.930199 # 2 UNK
3310 1 2 0.000000 35.677399 3.055940 42.401199 # 2 UNK
3311 1 2 0.000000 42.619400 9.468220 35.488201 # 2 UNK
3312 1 2 0.000000 39.265900 9.009990 41.061298 # 2 UNK
3313 1 2 0.000000 28.358900 31.434500 27.028500 # 2 UNK
3314 1 2 0.000000 37.523499 14.775500 42.181198 # 2 UNK
3315 1 2 0.000000 42.209900 13.393800 42.218498 # 2 UNK
3316 1 2 0.000000 15.024600 14.061800 35.515598 # 2 UNK
3317 1 2 0.000000 20.180099 4.262810 38.143902 # 2 UNK
3318 1 2 0.000000 23.521700 24.304300 38.545200 # 2 UNK
3319 1 2 0.000000 0.631051 25.956499 42.503799 # 2 UNK
3320 1 2 0.000000 19.689699 20.178301 43.847599 # 2 UNK
3321 1 2 0.000000 44.562801 19.255100 37.769699 # 2 UNK
3322 1 2 0.000000 44.606300 22.784901 42.353100 # 2 UNK
3323 1 2 0.000000 23.594200 19.907200 29.304899 # 2 UNK
3324 1 2 0.000000 1.692310 17.866100 42.026600 # 2 UNK
3325 1 2 0.000000 40.757000 19.035900 41.616199 # 2 UNK
3326 1 2 0.000000 1.196270 21.475599 37.415001 # 2 UNK
3327 1 2 0.000000 3.192680 25.129200 35.786098 # 2 UNK
3328 1 2 0.000000 43.571400 17.208300 43.663601 # 2 UNK
3329 1 2 0.000000 11.676500 29.358400 24.240601 # 2 UNK
3330 1 2 0.000000 13.744800 24.649401 28.823400 # 2 UNK
3331 1 2 0.000000 15.135200 24.312201 23.235100 # 2 UNK
3332 1 2 0.000000 21.164301 23.893299 23.368401 # 2 UNK
3333 1 2 0.000000 10.286900 21.939600 30.817200 # 2 UNK
3334 1 2 0.000000 40.765598 27.410200 32.949699 # 2 UNK
3335 1 2 0.000000 18.670700 26.121500 28.756100 # 2 UNK
3336 1 2 0.000000 32.117802 25.687099 33.767300 # 2 UNK
3337 1 2 0.000000 1.096540 41.659401 23.864100 # 2 UNK
3338 1 2 0.000000 46.569698 43.023998 31.365299 # 2 UNK
3339 1 2 0.000000 3.003210 36.476299 24.303301 # 2 UNK
3340 1 2 0.000000 9.561140 36.298000 23.381800 # 2 UNK
3341 1 2 0.000000 0.763330 30.311300 30.431999 # 2 UNK
3342 1 2 0.000000 32.063400 42.433498 33.749599 # 2 UNK
3343 1 2 0.000000 7.082100 45.103901 36.500599 # 2 UNK
3344 1 2 0.000000 41.674500 6.330180 26.766701 # 2 UNK
3345 1 2 0.000000 0.361444 30.640699 24.504200 # 2 UNK
3346 1 2 0.000000 27.674601 27.567101 36.732101 # 2 UNK
3347 1 2 0.000000 2.908200 24.241899 23.283600 # 2 UNK
3348 1 2 0.000000 9.282000 23.917200 24.197500 # 2 UNK
3349 1 2 0.000000 14.467700 22.734200 35.668701 # 2 UNK
3350 1 2 0.000000 5.787490 30.155800 27.271000 # 2 UNK
3351 1 2 0.000000 4.904810 19.713100 32.639000 # 2 UNK
3352 1 2 0.000000 42.006599 29.594601 39.211102 # 2 UNK
3353 1 2 0.000000 7.440040 27.456900 32.099098 # 2 UNK
3354 1 2 0.000000 6.483850 31.360001 44.319199 # 2 UNK
3355 1 2 0.000000 12.605000 25.475100 41.778801 # 2 UNK
3356 1 2 0.000000 5.596020 15.396300 28.815399 # 2 UNK
3357 1 2 0.000000 11.814300 29.157000 35.484200 # 2 UNK
3358 1 2 0.000000 9.870590 35.807499 33.424301 # 2 UNK
3359 1 2 0.000000 2.750470 41.921398 40.353001 # 2 UNK
3360 1 2 0.000000 6.119230 13.374000 34.627800 # 2 UNK
3361 1 2 0.000000 12.137700 41.622101 23.696301 # 2 UNK
3362 1 2 0.000000 23.470699 38.737202 37.603298 # 2 UNK
3363 1 2 0.000000 15.522300 35.850899 22.999300 # 2 UNK
3364 1 2 0.000000 21.304300 35.946999 23.465200 # 2 UNK
3365 1 2 0.000000 5.407420 30.663401 33.026501 # 2 UNK
3366 1 2 0.000000 44.343498 40.092701 37.812401 # 2 UNK
3367 1 2 0.000000 24.705900 2.015820 29.041100 # 2 UNK
3368 1 2 0.000000 14.882400 6.771640 40.152802 # 2 UNK
3369 1 2 0.000000 7.976250 23.570700 33.907200 # 2 UNK
3370 1 2 0.000000 27.545799 33.042702 38.798199 # 2 UNK
3371 1 2 0.000000 11.181900 29.895800 30.608500 # 2 UNK
3372 1 2 0.000000 4.574870 20.133900 27.072701 # 2 UNK
3373 1 2 0.000000 15.662800 31.985300 37.281101 # 2 UNK
3374 1 2 0.000000 8.918230 38.865101 36.903702 # 2 UNK
3375 1 2 0.000000 25.043699 27.319901 29.343000 # 2 UNK
3376 1 2 0.000000 17.769699 30.713400 44.105202 # 2 UNK
3377 1 2 0.000000 4.094000 19.008801 36.447300 # 2 UNK
3378 1 2 0.000000 1.106550 28.554001 36.062000 # 2 UNK
3379 1 2 0.000000 0.103982 39.063599 27.919901 # 2 UNK
3380 1 2 0.000000 11.118800 43.380402 41.870899 # 2 UNK
3381 1 2 0.000000 1.343140 34.696201 37.554401 # 2 UNK
3382 1 2 0.000000 37.426998 33.163300 31.656401 # 2 UNK
3383 1 2 0.000000 0.945324 37.890900 42.197399 # 2 UNK
3384 1 2 0.000000 7.087060 42.600300 44.466999 # 2 UNK
3385 1 2 0.000000 13.647500 36.414299 28.372601 # 2 UNK
3386 1 2 0.000000 9.229480 32.755100 36.091400 # 2 UNK
3387 1 2 0.000000 11.435900 37.346100 42.276001 # 2 UNK
3388 1 2 0.000000 3.967710 22.489100 43.403801 # 2 UNK
3389 1 2 0.000000 18.496201 36.125900 41.173100 # 2 UNK
3390 1 2 0.000000 19.762699 41.440399 37.666901 # 2 UNK
3391 1 2 0.000000 24.461700 45.117901 42.635502 # 2 UNK
3392 1 2 0.000000 18.100599 41.966900 44.861900 # 2 UNK
3393 1 2 0.000000 35.825699 29.965099 24.303699 # 2 UNK
3394 1 2 0.000000 42.919201 30.896200 28.608900 # 2 UNK
3395 1 2 0.000000 38.529999 24.129999 23.507999 # 2 UNK
3396 1 2 0.000000 44.516201 23.995899 23.365499 # 2 UNK
3397 1 2 0.000000 1.227130 16.957300 31.290899 # 2 UNK
3398 1 2 0.000000 2.621640 25.475500 31.424801 # 2 UNK
3399 1 2 0.000000 0.760797 34.188599 29.235701 # 2 UNK
3400 1 2 0.000000 3.284230 15.732200 37.376202 # 2 UNK
3401 1 2 0.000000 24.114401 41.218498 23.961000 # 2 UNK
3402 1 2 0.000000 29.601101 37.653198 35.884701 # 2 UNK
3403 1 2 0.000000 26.909100 35.140900 23.373199 # 2 UNK
3404 1 2 0.000000 33.159302 35.381302 23.572599 # 2 UNK
3405 1 2 0.000000 24.918699 35.894100 30.902800 # 2 UNK
3406 1 2 0.000000 29.306700 5.992200 26.531099 # 2 UNK
3407 1 2 0.000000 27.208900 43.832100 27.738800 # 2 UNK
3408 1 2 0.000000 15.170500 31.630600 30.722500 # 2 UNK
3409 1 2 0.000000 23.804501 30.193001 24.395100 # 2 UNK
3410 1 2 0.000000 43.112999 26.161200 28.721399 # 2 UNK
3411 1 2 0.000000 26.946800 24.073500 23.417000 # 2 UNK
3412 1 2 0.000000 33.205502 24.390900 23.170000 # 2 UNK
3413 1 2 0.000000 31.759001 27.759199 27.132200 # 2 UNK
3414 1 2 0.000000 29.968901 31.071501 33.696400 # 2 UNK
3415 1 2 0.000000 2.142820 26.631100 26.290701 # 2 UNK
3416 1 2 0.000000 30.445700 35.178501 30.002600 # 2 UNK
3417 1 2 0.000000 35.006901 29.847500 32.030899 # 2 UNK
3418 1 2 0.000000 40.298599 23.932400 39.253601 # 2 UNK
3419 1 2 0.000000 29.875299 18.293100 44.532001 # 2 UNK
3420 1 2 0.000000 41.267799 20.704201 27.089500 # 2 UNK
3421 1 2 0.000000 28.829201 24.906300 42.056801 # 2 UNK
3422 1 2 0.000000 23.888399 33.512798 42.474701 # 2 UNK
3423 1 2 0.000000 19.255600 28.738701 39.139000 # 2 UNK
3424 1 2 0.000000 38.363300 25.979000 43.342899 # 2 UNK
3425 1 2 0.000000 35.327000 41.762199 23.824900 # 2 UNK
3426 1 2 0.000000 43.851601 32.882401 34.803699 # 2 UNK
3427 1 2 0.000000 38.908501 35.957600 23.585100 # 2 UNK
3428 1 2 0.000000 44.805302 35.476101 23.252600 # 2 UNK
3429 1 2 0.000000 44.575100 26.032400 34.938000 # 2 UNK
3430 1 2 0.000000 28.327900 12.066600 29.032700 # 2 UNK
3431 1 2 0.000000 29.939800 38.375198 28.062300 # 2 UNK
3432 1 2 0.000000 22.879499 33.544102 36.625599 # 2 UNK
3433 1 2 0.000000 35.231098 38.153801 32.360001 # 2 UNK
3434 1 2 0.000000 6.622900 37.330799 42.741100 # 2 UNK
3435 1 2 0.000000 9.579010 14.277500 37.933899 # 2 UNK
3436 1 2 0.000000 0.518692 29.522200 39.870602 # 2 UNK
3437 1 2 0.000000 42.278702 29.918100 45.014099 # 2 UNK
3438 1 2 0.000000 36.555000 38.618301 42.155399 # 2 UNK
3439 1 2 0.000000 1.393490 32.489101 42.846500 # 2 UNK
3440 1 2 0.000000 43.505299 34.181801 41.608700 # 2 UNK
3441 1 2 0.000000 23.397600 2.521750 42.853100 # 2 UNK
3442 1 2 0.000000 29.125999 31.282900 44.010899 # 2 UNK
3443 1 2 0.000000 33.249001 33.524399 35.774899 # 2 UNK
3444 1 2 0.000000 34.979698 44.471901 43.177200 # 2 UNK
3445 1 2 0.000000 23.626699 39.542198 42.544998 # 2 UNK
3446 1 2 0.000000 27.749599 6.363890 32.493999 # 2 UNK
3447 1 2 0.000000 0.600469 45.736301 36.370998 # 2 UNK
3448 1 2 0.000000 30.318600 41.754501 44.970798 # 2 UNK
3449 1 2 0.000000 41.602798 42.441299 27.350800 # 2 UNK
3450 1 2 0.000000 37.244999 30.217100 36.112000 # 2 UNK
3451 1 2 0.000000 33.937901 40.123901 39.174099 # 2 UNK
3452 1 2 0.000000 35.629501 34.401001 38.463100 # 2 UNK
3453 1 2 0.000000 30.166100 36.971600 42.047600 # 2 UNK
3454 1 2 0.000000 30.914499 1.976270 35.605000 # 2 UNK
3455 1 2 0.000000 40.402100 36.618198 37.758301 # 2 UNK
3456 1 2 0.000000 42.078098 42.056400 44.528900 # 2 UNK

