LAMMPS data file via MDAnalysis

        3456  atoms
           0  bonds
           0  angles
           0  dihedrals
           0  impropers

           2  atom types
           0  bond types
           0  angle types
           0  dihedral types
           0  improper types

0.000000 47.050000 xlo xhi
0.000000 47.050000 ylo yhi
0.000000 47.050000 zlo zhi


Masses

1 18.015000
2 44.009000

Atoms

1 0 1 0.000000 12.030000 0.000000 3.006000
2 0 1 0.000000 12.030000 2.321000 1.422000
3 0 1 0.000000 12.030000 2.321000 10.608000
4 0 1 0.000000 12.030000 9.709000 1.422000
5 0 1 0.000000 12.030000 9.709000 10.608000
6 0 1 0.000000 18.045000 9.024000 0.000000
7 0 1 0.000000 18.045000 1.422000 2.321000
8 0 1 0.000000 18.045000 10.608000 2.321000
9 0 1 0.000000 18.045000 1.422000 9.709000
10 0 1 0.000000 18.045000 10.608000 9.709000
11 0 1 0.000000 15.725000 4.593000 0.000000
12 0 1 0.000000 14.349999 0.000000 7.437000
13 0 1 0.000000 14.292999 3.713000 2.210000
14 0 1 0.000000 14.292999 3.713000 9.820000
15 0 1 0.000000 14.292999 8.317000 2.210000
16 0 1 0.000000 14.292999 8.317000 9.820000
17 0 1 0.000000 15.782000 2.210000 3.713000
18 0 1 0.000000 15.782000 9.820000 3.713000
19 0 1 0.000000 15.782000 2.210000 8.317000
20 0 1 0.000000 15.782000 9.820000 8.317000
21 0 1 0.000000 20.365000 4.593000 0.000000
22 0 1 0.000000 21.740000 0.000000 7.437000
23 0 1 0.000000 21.797001 3.713000 2.210000
24 0 1 0.000000 21.797001 3.713000 9.820000
25 0 1 0.000000 21.797001 8.317000 2.210000
26 0 1 0.000000 21.797001 8.317000 9.820000
27 0 1 0.000000 20.308001 2.210000 3.713000
28 0 1 0.000000 20.308001 9.820000 3.713000
29 0 1 0.000000 20.308001 2.210000 8.317000
30 0 1 0.000000 20.308001 9.820000 8.317000
31 0 1 0.000000 15.036000 6.015000 6.015000
32 0 1 0.000000 21.054001 6.015000 6.015000
33 0 1 0.000000 13.452001 6.015000 8.336000
34 0 1 0.000000 22.637999 6.015000 8.336000
35 0 1 0.000000 13.452001 6.015000 3.694000
36 0 1 0.000000 22.637999 6.015000 3.694000
37 0 1 0.000000 16.622999 3.695000 6.015000
38 0 1 0.000000 19.466999 3.695000 6.015000
39 0 1 0.000000 16.622999 8.335000 6.015000
40 0 1 0.000000 19.466999 8.335000 6.015000
41 0 1 0.000000 0.000000 12.030000 9.024000
42 0 1 0.000000 2.320000 12.030000 4.593000
43 0 1 0.000000 9.710000 12.030000 4.593000
44 0 1 0.000000 0.000000 21.738998 1.422000
45 0 1 0.000000 0.000000 21.738998 10.608000
46 0 1 0.000000 6.015000 21.054001 0.000000
47 0 1 0.000000 6.015000 13.452001 2.321000
48 0 1 0.000000 6.015000 22.637999 2.321000
49 0 1 0.000000 6.015000 13.452001 9.709000
50 0 1 0.000000 6.015000 22.637999 9.709000
51 0 1 0.000000 3.695000 16.622999 0.000000
52 0 1 0.000000 2.320000 12.030000 7.437000
53 0 1 0.000000 2.263000 15.743000 2.210000
54 0 1 0.000000 2.263000 15.743000 9.820000
55 0 1 0.000000 2.263000 20.347002 2.210000
56 0 1 0.000000 2.263000 20.347002 9.820000
57 0 1 0.000000 3.752000 14.240000 3.713000
58 0 1 0.000000 3.752000 21.849998 3.713000
59 0 1 0.000000 3.752000 14.240000 8.317000
60 0 1 0.000000 3.752000 21.849998 8.317000
61 0 1 0.000000 8.335000 16.622999 0.000000
62 0 1 0.000000 9.710000 12.030000 7.437000
63 0 1 0.000000 9.767000 15.743000 2.210000
64 0 1 0.000000 9.767000 15.743000 9.820000
65 0 1 0.000000 9.767000 20.347002 2.210000
66 0 1 0.000000 9.767000 20.347002 9.820000
67 0 1 0.000000 8.278000 14.240000 3.713000
68 0 1 0.000000 8.278000 21.849998 3.713000
69 0 1 0.000000 8.278000 14.240000 8.317000
70 0 1 0.000000 8.278000 21.849998 8.317000
71 0 1 0.000000 3.006000 18.045000 6.015000
72 0 1 0.000000 9.024000 18.045000 6.015000
73 0 1 0.000000 1.422000 18.045000 8.336000
74 0 1 0.000000 10.608000 18.045000 8.336000
75 0 1 0.000000 1.422000 18.045000 3.694000
76 0 1 0.000000 10.608000 18.045000 3.694000
77 0 1 0.000000 4.593000 15.725000 6.015000
78 0 1 0.000000 7.437000 15.725000 6.015000
79 0 1 0.000000 4.593000 20.365000 6.015000
80 0 1 0.000000 7.437000 20.365000 6.015000
81 0 1 0.000000 0.000000 9.709000 1.422000
82 0 1 0.000000 0.000000 9.709000 10.608000
83 0 1 0.000000 6.015000 9.024000 0.000000
84 0 1 0.000000 6.015000 1.422000 2.321000
85 0 1 0.000000 6.015000 10.608000 2.321000
86 0 1 0.000000 6.015000 1.422000 9.709000
87 0 1 0.000000 6.015000 10.608000 9.709000
88 0 1 0.000000 3.695000 4.593000 0.000000
89 0 1 0.000000 2.320000 0.000000 7.437000
90 0 1 0.000000 2.263000 3.713000 2.210000
91 0 1 0.000000 2.263000 3.713000 9.820000
92 0 1 0.000000 2.263000 8.317000 2.210000
93 0 1 0.000000 2.263000 8.317000 9.820000
94 0 1 0.000000 3.752000 2.210000 3.713000
95 0 1 0.000000 3.752000 9.820000 3.713000
96 0 1 0.000000 3.752000 2.210000 8.317000
97 0 1 0.000000 3.752000 9.820000 8.317000
98 0 1 0.000000 8.335000 4.593000 0.000000
99 0 1 0.000000 9.710000 0.000000 7.437000
100 0 1 0.000000 9.767000 3.713000 2.210000
101 0 1 0.000000 9.767000 3.713000 9.820000
102 0 1 0.000000 9.767000 8.317000 2.210000
103 0 1 0.000000 9.767000 8.317000 9.820000
104 0 1 0.000000 8.278000 2.210000 3.713000
105 0 1 0.000000 8.278000 9.820000 3.713000
106 0 1 0.000000 8.278000 2.210000 8.317000
107 0 1 0.000000 8.278000 9.820000 8.317000
108 0 1 0.000000 3.006000 6.015000 6.015000
109 0 1 0.000000 9.024000 6.015000 6.015000
110 0 1 0.000000 1.422000 6.015000 8.336000
111 0 1 0.000000 10.608000 6.015000 8.336000
112 0 1 0.000000 1.422000 6.015000 3.694000
113 0 1 0.000000 10.608000 6.015000 3.694000
114 0 1 0.000000 4.593000 3.695000 6.015000
115 0 1 0.000000 7.437000 3.695000 6.015000
116 0 1 0.000000 4.593000 8.335000 6.015000
117 0 1 0.000000 7.437000 8.335000 6.015000
118 0 1 0.000000 6.015000 3.006000 12.030000
119 0 1 0.000000 3.695000 7.437000 12.030000
120 0 1 0.000000 8.335000 7.437000 12.030000
121 0 1 0.000000 0.000000 9.709000 13.452001
122 0 1 0.000000 0.000000 9.709000 22.637999
123 0 1 0.000000 6.015000 9.024000 12.030000
124 0 1 0.000000 6.015000 1.422000 14.351000
125 0 1 0.000000 6.015000 10.608000 14.351000
126 0 1 0.000000 6.015000 1.422000 21.738998
127 0 1 0.000000 6.015000 10.608000 21.738998
128 0 1 0.000000 3.695000 4.593000 12.030000
129 0 1 0.000000 2.320000 0.000000 19.466999
130 0 1 0.000000 2.263000 3.713000 14.240000
131 0 1 0.000000 2.263000 3.713000 21.849998
132 0 1 0.000000 2.263000 8.317000 14.240000
133 0 1 0.000000 2.263000 8.317000 21.849998
134 0 1 0.000000 3.752000 2.210000 15.743000
135 0 1 0.000000 3.752000 9.820000 15.743000
136 0 1 0.000000 3.752000 2.210000 20.347002
137 0 1 0.000000 3.752000 9.820000 20.347002
138 0 1 0.000000 8.335000 4.593000 12.030000
139 0 1 0.000000 9.710000 0.000000 19.466999
140 0 1 0.000000 9.767000 3.713000 14.240000
141 0 1 0.000000 9.767000 3.713000 21.849998
142 0 1 0.000000 9.767000 8.317000 14.240000
143 0 1 0.000000 9.767000 8.317000 21.849998
144 0 1 0.000000 8.278000 2.210000 15.743000
145 0 1 0.000000 8.278000 9.820000 15.743000
146 0 1 0.000000 8.278000 2.210000 20.347002
147 0 1 0.000000 8.278000 9.820000 20.347002
148 0 1 0.000000 3.006000 6.015000 18.045000
149 0 1 0.000000 9.024000 6.015000 18.045000
150 0 1 0.000000 1.422000 6.015000 20.366001
151 0 1 0.000000 10.608000 6.015000 20.366001
152 0 1 0.000000 1.422000 6.015000 15.724000
153 0 1 0.000000 10.608000 6.015000 15.724000
154 0 1 0.000000 4.593000 3.695000 18.045000
155 0 1 0.000000 7.437000 3.695000 18.045000
156 0 1 0.000000 4.593000 8.335000 18.045000
157 0 1 0.000000 7.437000 8.335000 18.045000
158 0 1 0.000000 24.059999 0.000000 3.006000
159 0 1 0.000000 24.059999 2.321000 1.422000
160 0 1 0.000000 24.059999 2.321000 10.608000
161 0 1 0.000000 12.030000 12.030000 9.024000
162 0 1 0.000000 14.349999 12.030000 4.593000
163 0 1 0.000000 21.740000 12.030000 4.593000
164 0 1 0.000000 12.030000 12.030000 3.006000
165 0 1 0.000000 12.030000 14.351000 1.422000
166 0 1 0.000000 12.030000 14.351000 10.608000
167 0 1 0.000000 12.030000 21.738998 1.422000
168 0 1 0.000000 12.030000 21.738998 10.608000
169 0 1 0.000000 18.045000 21.054001 0.000000
170 0 1 0.000000 18.045000 13.452001 2.321000
171 0 1 0.000000 18.045000 22.637999 2.321000
172 0 1 0.000000 18.045000 13.452001 9.709000
173 0 1 0.000000 18.045000 22.637999 9.709000
174 0 1 0.000000 15.725000 16.622999 0.000000
175 0 1 0.000000 14.349999 12.030000 7.437000
176 0 1 0.000000 14.292999 15.743000 2.210000
177 0 1 0.000000 14.292999 15.743000 9.820000
178 0 1 0.000000 14.292999 20.347002 2.210000
179 0 1 0.000000 14.292999 20.347002 9.820000
180 0 1 0.000000 15.782000 14.240000 3.713000
181 0 1 0.000000 15.782000 21.849998 3.713000
182 0 1 0.000000 15.782000 14.240000 8.317000
183 0 1 0.000000 15.782000 21.849998 8.317000
184 0 1 0.000000 20.365000 16.622999 0.000000
185 0 1 0.000000 21.740000 12.030000 7.437000
186 0 1 0.000000 21.797001 15.743000 2.210000
187 0 1 0.000000 21.797001 15.743000 9.820000
188 0 1 0.000000 21.797001 20.347002 2.210000
189 0 1 0.000000 21.797001 20.347002 9.820000
190 0 1 0.000000 20.308001 14.240000 3.713000
191 0 1 0.000000 20.308001 21.849998 3.713000
192 0 1 0.000000 20.308001 14.240000 8.317000
193 0 1 0.000000 20.308001 21.849998 8.317000
194 0 1 0.000000 15.036000 18.045000 6.015000
195 0 1 0.000000 21.054001 18.045000 6.015000
196 0 1 0.000000 13.452001 18.045000 8.336000
197 0 1 0.000000 22.637999 18.045000 8.336000
198 0 1 0.000000 13.452001 18.045000 3.694000
199 0 1 0.000000 22.637999 18.045000 3.694000
200 0 1 0.000000 16.622999 15.725000 6.015000
201 0 1 0.000000 19.466999 15.725000 6.015000
202 0 1 0.000000 16.622999 20.365000 6.015000
203 0 1 0.000000 19.466999 20.365000 6.015000
204 0 1 0.000000 18.045000 3.006000 12.030000
205 0 1 0.000000 15.725000 7.437000 12.030000
206 0 1 0.000000 20.365000 7.437000 12.030000
207 0 1 0.000000 12.030000 0.000000 15.036000
208 0 1 0.000000 12.030000 2.321000 13.452001
209 0 1 0.000000 12.030000 2.321000 22.637999
210 0 1 0.000000 12.030000 9.709000 13.452001
211 0 1 0.000000 12.030000 9.709000 22.637999
212 0 1 0.000000 18.045000 9.024000 12.030000
213 0 1 0.000000 18.045000 1.422000 14.351000
214 0 1 0.000000 18.045000 10.608000 14.351000
215 0 1 0.000000 18.045000 1.422000 21.738998
216 0 1 0.000000 18.045000 10.608000 21.738998
217 0 1 0.000000 15.725000 4.593000 12.030000
218 0 1 0.000000 14.349999 0.000000 19.466999
219 0 1 0.000000 14.292999 3.713000 14.240000
220 0 1 0.000000 14.292999 3.713000 21.849998
221 0 1 0.000000 14.292999 8.317000 14.240000
222 0 1 0.000000 14.292999 8.317000 21.849998
223 0 1 0.000000 15.782000 2.210000 15.743000
224 0 1 0.000000 15.782000 9.820000 15.743000
225 0 1 0.000000 15.782000 2.210000 20.347002
226 0 1 0.000000 15.782000 9.820000 20.347002
227 0 1 0.000000 20.365000 4.593000 12.030000
228 0 1 0.000000 21.740000 0.000000 19.466999
229 0 1 0.000000 21.797001 3.713000 14.240000
230 0 1 0.000000 21.797001 3.713000 21.849998
231 0 1 0.000000 21.797001 8.317000 14.240000
232 0 1 0.000000 21.797001 8.317000 21.849998
233 0 1 0.000000 20.308001 2.210000 15.743000
234 0 1 0.000000 20.308001 9.820000 15.743000
235 0 1 0.000000 20.308001 2.210000 20.347002
236 0 1 0.000000 20.308001 9.820000 20.347002
237 0 1 0.000000 15.036000 6.015000 18.045000
238 0 1 0.000000 21.054001 6.015000 18.045000
239 0 1 0.000000 13.452001 6.015000 20.366001
240 0 1 0.000000 22.637999 6.015000 20.366001
241 0 1 0.000000 13.452001 6.015000 15.724000
242 0 1 0.000000 22.637999 6.015000 15.724000
243 0 1 0.000000 16.622999 3.695000 18.045000
244 0 1 0.000000 19.466999 3.695000 18.045000
245 0 1 0.000000 16.622999 8.335000 18.045000
246 0 1 0.000000 19.466999 8.335000 18.045000
247 0 1 0.000000 0.000000 24.059999 9.024000
248 0 1 0.000000 2.320000 24.059999 4.593000
249 0 1 0.000000 9.710000 24.059999 4.593000
250 0 1 0.000000 6.015000 15.036000 12.030000
251 0 1 0.000000 3.695000 19.466999 12.030000
252 0 1 0.000000 8.335000 19.466999 12.030000
253 0 1 0.000000 0.000000 12.030000 21.054001
254 0 1 0.000000 2.320000 12.030000 16.622999
255 0 1 0.000000 9.710000 12.030000 16.622999
256 0 1 0.000000 0.000000 21.738998 13.452001
257 0 1 0.000000 0.000000 21.738998 22.637999
258 0 1 0.000000 6.015000 21.054001 12.030000
259 0 1 0.000000 6.015000 13.452001 14.351000
260 0 1 0.000000 6.015000 22.637999 14.351000
261 0 1 0.000000 6.015000 13.452001 21.738998
262 0 1 0.000000 6.015000 22.637999 21.738998
263 0 1 0.000000 3.695000 16.622999 12.030000
264 0 1 0.000000 2.320000 12.030000 19.466999
265 0 1 0.000000 2.263000 15.743000 14.240000
266 0 1 0.000000 2.263000 15.743000 21.849998
267 0 1 0.000000 2.263000 20.347002 14.240000
268 0 1 0.000000 2.263000 20.347002 21.849998
269 0 1 0.000000 3.752000 14.240000 15.743000
270 0 1 0.000000 3.752000 21.849998 15.743000
271 0 1 0.000000 3.752000 14.240000 20.347002
272 0 1 0.000000 3.752000 21.849998 20.347002
273 0 1 0.000000 8.335000 16.622999 12.030000
274 0 1 0.000000 9.710000 12.030000 19.466999
275 0 1 0.000000 9.767000 15.743000 14.240000
276 0 1 0.000000 9.767000 15.743000 21.849998
277 0 1 0.000000 9.767000 20.347002 14.240000
278 0 1 0.000000 9.767000 20.347002 21.849998
279 0 1 0.000000 8.278000 14.240000 15.743000
280 0 1 0.000000 8.278000 21.849998 15.743000
281 0 1 0.000000 8.278000 14.240000 20.347002
282 0 1 0.000000 8.278000 21.849998 20.347002
283 0 1 0.000000 3.006000 18.045000 18.045000
284 0 1 0.000000 9.024000 18.045000 18.045000
285 0 1 0.000000 1.422000 18.045000 20.366001
286 0 1 0.000000 10.608000 18.045000 20.366001
287 0 1 0.000000 1.422000 18.045000 15.724000
288 0 1 0.000000 10.608000 18.045000 15.724000
289 0 1 0.000000 4.593000 15.725000 18.045000
290 0 1 0.000000 7.437000 15.725000 18.045000
291 0 1 0.000000 4.593000 20.365000 18.045000
292 0 1 0.000000 7.437000 20.365000 18.045000
293 0 1 0.000000 24.059999 12.030000 3.006000
294 0 1 0.000000 24.059999 14.351000 1.422000
295 0 1 0.000000 24.059999 14.351000 10.608000
296 0 1 0.000000 12.030000 24.059999 9.024000
297 0 1 0.000000 14.349999 24.059999 4.593000
298 0 1 0.000000 21.740000 24.059999 4.593000
299 0 1 0.000000 18.045000 15.036000 12.030000
300 0 1 0.000000 15.725000 19.466999 12.030000
301 0 1 0.000000 20.365000 19.466999 12.030000
302 0 1 0.000000 12.030000 12.030000 21.054001
303 0 1 0.000000 14.349999 12.030000 16.622999
304 0 1 0.000000 21.740000 12.030000 16.622999
305 0 1 0.000000 12.030000 12.030000 15.036000
306 0 1 0.000000 12.030000 14.351000 13.452001
307 0 1 0.000000 12.030000 14.351000 22.637999
308 0 1 0.000000 12.030000 21.738998 13.452001
309 0 1 0.000000 12.030000 21.738998 22.637999
310 0 1 0.000000 18.045000 21.054001 12.030000
311 0 1 0.000000 18.045000 13.452001 14.351000
312 0 1 0.000000 18.045000 22.637999 14.351000
313 0 1 0.000000 18.045000 13.452001 21.738998
314 0 1 0.000000 18.045000 22.637999 21.738998
315 0 1 0.000000 15.725000 16.622999 12.030000
316 0 1 0.000000 14.349999 12.030000 19.466999
317 0 1 0.000000 14.292999 15.743000 14.240000
318 0 1 0.000000 14.292999 15.743000 21.849998
319 0 1 0.000000 14.292999 20.347002 14.240000
320 0 1 0.000000 14.292999 20.347002 21.849998
321 0 1 0.000000 15.782000 14.240000 15.743000
322 0 1 0.000000 15.782000 21.849998 15.743000
323 0 1 0.000000 15.782000 14.240000 20.347002
324 0 1 0.000000 15.782000 21.849998 20.347002
325 0 1 0.000000 20.365000 16.622999 12.030000
326 0 1 0.000000 21.740000 12.030000 19.466999
327 0 1 0.000000 21.797001 15.743000 14.240000
328 0 1 0.000000 21.797001 15.743000 21.849998
329 0 1 0.000000 21.797001 20.347002 14.240000
330 0 1 0.000000 21.797001 20.347002 21.849998
331 0 1 0.000000 20.308001 14.240000 15.743000
332 0 1 0.000000 20.308001 21.849998 15.743000
333 0 1 0.000000 20.308001 14.240000 20.347002
334 0 1 0.000000 20.308001 21.849998 20.347002
335 0 1 0.000000 15.036000 18.045000 18.045000
336 0 1 0.000000 21.054001 18.045000 18.045000
337 0 1 0.000000 13.452001 18.045000 20.366001
338 0 1 0.000000 22.637999 18.045000 20.366001
339 0 1 0.000000 13.452001 18.045000 15.724000
340 0 1 0.000000 22.637999 18.045000 15.724000
341 0 1 0.000000 16.622999 15.725000 18.045000
342 0 1 0.000000 19.466999 15.725000 18.045000
343 0 1 0.000000 16.622999 20.365000 18.045000
344 0 1 0.000000 19.466999 20.365000 18.045000
345 0 1 0.000000 6.015000 3.006000 24.059999
346 0 1 0.000000 3.695000 7.437000 24.059999
347 0 1 0.000000 8.335000 7.437000 24.059999
348 0 1 0.000000 24.059999 0.000000 15.036000
349 0 1 0.000000 24.059999 2.321000 13.452001
350 0 1 0.000000 24.059999 2.321000 22.637999
351 0 1 0.000000 18.045000 3.006000 24.059999
352 0 1 0.000000 15.725000 7.437000 24.059999
353 0 1 0.000000 20.365000 7.437000 24.059999
354 0 1 0.000000 0.000000 24.059999 21.054001
355 0 1 0.000000 2.320000 24.059999 16.622999
356 0 1 0.000000 9.710000 24.059999 16.622999
357 0 1 0.000000 6.015000 15.036000 24.059999
358 0 1 0.000000 3.695000 19.466999 24.059999
359 0 1 0.000000 8.335000 19.466999 24.059999
360 0 1 0.000000 24.059999 12.030000 15.036000
361 0 1 0.000000 24.059999 14.351000 13.452001
362 0 1 0.000000 24.059999 14.351000 22.637999
363 0 1 0.000000 12.030000 24.059999 21.054001
364 0 1 0.000000 14.349999 24.059999 16.622999
365 0 1 0.000000 21.740000 24.059999 16.622999
366 0 1 0.000000 18.045000 15.036000 24.059999
367 0 1 0.000000 15.725000 19.466999 24.059999
368 0 1 0.000000 20.365000 19.466999 24.059999
369 0 1 0.000000 36.090000 0.000000 3.006000
370 0 1 0.000000 36.090000 2.321000 1.422000
371 0 1 0.000000 36.090000 2.321000 10.608000
372 0 1 0.000000 36.090000 9.709000 1.422000
373 0 1 0.000000 36.090000 9.709000 10.608000
374 0 1 0.000000 42.104996 9.024000 0.000000
375 0 1 0.000000 42.104996 1.422000 2.321000
376 0 1 0.000000 42.104996 10.608000 2.321000
377 0 1 0.000000 42.104996 1.422000 9.709000
378 0 1 0.000000 42.104996 10.608000 9.709000
379 0 1 0.000000 39.785000 4.593000 0.000000
380 0 1 0.000000 38.410000 0.000000 7.437000
381 0 1 0.000000 38.353001 3.713000 2.210000
382 0 1 0.000000 38.353001 3.713000 9.820000
383 0 1 0.000000 38.353001 8.317000 2.210000
384 0 1 0.000000 38.353001 8.317000 9.820000
385 0 1 0.000000 39.841999 2.210000 3.713000
386 0 1 0.000000 39.841999 9.820000 3.713000
387 0 1 0.000000 39.841999 2.210000 8.317000
388 0 1 0.000000 39.841999 9.820000 8.317000
389 0 1 0.000000 44.425003 4.593000 0.000000
390 0 1 0.000000 45.799999 0.000000 7.437000
391 0 1 0.000000 45.857002 3.713000 2.210000
392 0 1 0.000000 45.857002 3.713000 9.820000
393 0 1 0.000000 45.857002 8.317000 2.210000
394 0 1 0.000000 45.857002 8.317000 9.820000
395 0 1 0.000000 44.368000 2.210000 3.713000
396 0 1 0.000000 44.368000 9.820000 3.713000
397 0 1 0.000000 44.368000 2.210000 8.317000
398 0 1 0.000000 44.368000 9.820000 8.317000
399 0 1 0.000000 39.096001 6.015000 6.015000
400 0 1 0.000000 45.114002 6.015000 6.015000
401 0 1 0.000000 37.512001 6.015000 8.336000
402 0 1 0.000000 46.697998 6.015000 8.336000
403 0 1 0.000000 37.512001 6.015000 3.694000
404 0 1 0.000000 46.697998 6.015000 3.694000
405 0 1 0.000000 40.682999 3.695000 6.015000
406 0 1 0.000000 43.526997 3.695000 6.015000
407 0 1 0.000000 40.682999 8.335000 6.015000
408 0 1 0.000000 43.526997 8.335000 6.015000
409 0 1 0.000000 24.059999 12.030000 9.024000
410 0 1 0.000000 26.380001 12.030000 4.593000
411 0 1 0.000000 33.770000 12.030000 4.593000
412 0 1 0.000000 24.059999 21.738998 1.422000
413 0 1 0.000000 24.059999 21.738998 10.608000
414 0 1 0.000000 30.074999 21.054001 0.000000
415 0 1 0.000000 30.074999 13.452001 2.321000
416 0 1 0.000000 30.074999 22.637999 2.321000
417 0 1 0.000000 30.074999 13.452001 9.709000
418 0 1 0.000000 30.074999 22.637999 9.709000
419 0 1 0.000000 27.755001 16.622999 0.000000
420 0 1 0.000000 26.380001 12.030000 7.437000
421 0 1 0.000000 26.322998 15.743000 2.210000
422 0 1 0.000000 26.322998 15.743000 9.820000
423 0 1 0.000000 26.322998 20.347002 2.210000
424 0 1 0.000000 26.322998 20.347002 9.820000
425 0 1 0.000000 27.812000 14.240000 3.713000
426 0 1 0.000000 27.812000 21.849998 3.713000
427 0 1 0.000000 27.812000 14.240000 8.317000
428 0 1 0.000000 27.812000 21.849998 8.317000
429 0 1 0.000000 32.395000 16.622999 0.000000
430 0 1 0.000000 33.770000 12.030000 7.437000
431 0 1 0.000000 33.827000 15.743000 2.210000
432 0 1 0.000000 33.827000 15.743000 9.820000
433 0 1 0.000000 33.827000 20.347002 2.210000
434 0 1 0.000000 33.827000 20.347002 9.820000
435 0 1 0.000000 32.337997 14.240000 3.713000
436 0 1 0.000000 32.337997 21.849998 3.713000
437 0 1 0.000000 32.337997 14.240000 8.317000
438 0 1 0.000000 32.337997 21.849998 8.317000
439 0 1 0.000000 27.066000 18.045000 6.015000
440 0 1 0.000000 33.084000 18.045000 6.015000
441 0 1 0.000000 25.481998 18.045000 8.336000
442 0 1 0.000000 34.667999 18.045000 8.336000
443 0 1 0.000000 25.481998 18.045000 3.694000
444 0 1 0.000000 34.667999 18.045000 3.694000
445 0 1 0.000000 28.653000 15.725000 6.015000
446 0 1 0.000000 31.497000 15.725000 6.015000
447 0 1 0.000000 28.653000 20.365000 6.015000
448 0 1 0.000000 31.497000 20.365000 6.015000
449 0 1 0.000000 24.059999 9.709000 1.422000
450 0 1 0.000000 24.059999 9.709000 10.608000
451 0 1 0.000000 30.074999 9.024000 0.000000
452 0 1 0.000000 30.074999 1.422000 2.321000
453 0 1 0.000000 30.074999 10.608000 2.321000
454 0 1 0.000000 30.074999 1.422000 9.709000
455 0 1 0.000000 30.074999 10.608000 9.709000
456 0 1 0.000000 27.755001 4.593000 0.000000
457 0 1 0.000000 26.380001 0.000000 7.437000
458 0 1 0.000000 26.322998 3.713000 2.210000
459 0 1 0.000000 26.322998 3.713000 9.820000
460 0 1 0.000000 26.322998 8.317000 2.210000
461 0 1 0.000000 26.322998 8.317000 9.820000
462 0 1 0.000000 27.812000 2.210000 3.713000
463 0 1 0.000000 27.812000 9.820000 3.713000
464 0 1 0.000000 27.812000 2.210000 8.317000
465 0 1 0.000000 27.812000 9.820000 8.317000
466 0 1 0.000000 32.395000 4.593000 0.000000
467 0 1 0.000000 33.770000 0.000000 7.437000
468 0 1 0.000000 33.827000 3.713000 2.210000
469 0 1 0.000000 33.827000 3.713000 9.820000
470 0 1 0.000000 33.827000 8.317000 2.210000
471 0 1 0.000000 33.827000 8.317000 9.820000
472 0 1 0.000000 32.337997 2.210000 3.713000
473 0 1 0.000000 32.337997 9.820000 3.713000
474 0 1 0.000000 32.337997 2.210000 8.317000
475 0 1 0.000000 32.337997 9.820000 8.317000
476 0 1 0.000000 27.066000 6.015000 6.015000
477 0 1 0.000000 33.084000 6.015000 6.015000
478 0 1 0.000000 25.481998 6.015000 8.336000
479 0 1 0.000000 34.667999 6.015000 8.336000
480 0 1 0.000000 25.481998 6.015000 3.694000
481 0 1 0.000000 34.667999 6.015000 3.694000
482 0 1 0.000000 28.653000 3.695000 6.015000
483 0 1 0.000000 31.497000 3.695000 6.015000
484 0 1 0.000000 28.653000 8.335000 6.015000
485 0 1 0.000000 31.497000 8.335000 6.015000
486 0 1 0.000000 30.074999 3.006000 12.030000
487 0 1 0.000000 27.755001 7.437000 12.030000
488 0 1 0.000000 32.395000 7.437000 12.030000
489 0 1 0.000000 24.059999 9.709000 13.452001
490 0 1 0.000000 24.059999 9.709000 22.637999
491 0 1 0.000000 30.074999 9.024000 12.030000
492 0 1 0.000000 30.074999 1.422000 14.351000
493 0 1 0.000000 30.074999 10.608000 14.351000
494 0 1 0.000000 30.074999 1.422000 21.738998
495 0 1 0.000000 30.074999 10.608000 21.738998
496 0 1 0.000000 27.755001 4.593000 12.030000
497 0 1 0.000000 26.380001 0.000000 19.466999
498 0 1 0.000000 26.322998 3.713000 14.240000
499 0 1 0.000000 26.322998 3.713000 21.849998
500 0 1 0.000000 26.322998 8.317000 14.240000
501 0 1 0.000000 26.322998 8.317000 21.849998
502 0 1 0.000000 27.812000 2.210000 15.743000
503 0 1 0.000000 27.812000 9.820000 15.743000
504 0 1 0.000000 27.812000 2.210000 20.347002
505 0 1 0.000000 27.812000 9.820000 20.347002
506 0 1 0.000000 32.395000 4.593000 12.030000
507 0 1 0.000000 33.770000 0.000000 19.466999
508 0 1 0.000000 33.827000 3.713000 14.240000
509 0 1 0.000000 33.827000 3.713000 21.849998
510 0 1 0.000000 33.827000 8.317000 14.240000
511 0 1 0.000000 33.827000 8.317000 21.849998
512 0 1 0.000000 32.337997 2.210000 15.743000
513 0 1 0.000000 32.337997 9.820000 15.743000
514 0 1 0.000000 32.337997 2.210000 20.347002
515 0 1 0.000000 32.337997 9.820000 20.347002
516 0 1 0.000000 27.066000 6.015000 18.045000
517 0 1 0.000000 33.084000 6.015000 18.045000
518 0 1 0.000000 25.481998 6.015000 20.366001
519 0 1 0.000000 34.667999 6.015000 20.366001
520 0 1 0.000000 25.481998 6.015000 15.724000
521 0 1 0.000000 34.667999 6.015000 15.724000
522 0 1 0.000000 28.653000 3.695000 18.045000
523 0 1 0.000000 31.497000 3.695000 18.045000
524 0 1 0.000000 28.653000 8.335000 18.045000
525 0 1 0.000000 31.497000 8.335000 18.045000
526 0 1 0.000000 48.119999 0.000000 3.006000
527 0 1 0.000000 48.119999 2.321000 1.422000
528 0 1 0.000000 48.119999 2.321000 10.608000
529 0 1 0.000000 36.090000 12.030000 9.024000
530 0 1 0.000000 38.410000 12.030000 4.593000
531 0 1 0.000000 45.799999 12.030000 4.593000
532 0 1 0.000000 36.090000 12.030000 3.006000
533 0 1 0.000000 36.090000 14.351000 1.422000
534 0 1 0.000000 36.090000 14.351000 10.608000
535 0 1 0.000000 36.090000 21.738998 1.422000
536 0 1 0.000000 36.090000 21.738998 10.608000
537 0 1 0.000000 42.104996 21.054001 0.000000
538 0 1 0.000000 42.104996 13.452001 2.321000
539 0 1 0.000000 42.104996 22.637999 2.321000
540 0 1 0.000000 42.104996 13.452001 9.709000
541 0 1 0.000000 42.104996 22.637999 9.709000
542 0 1 0.000000 39.785000 16.622999 0.000000
543 0 1 0.000000 38.410000 12.030000 7.437000
544 0 1 0.000000 38.353001 15.743000 2.210000
545 0 1 0.000000 38.353001 15.743000 9.820000
546 0 1 0.000000 38.353001 20.347002 2.210000
547 0 1 0.000000 38.353001 20.347002 9.820000
548 0 1 0.000000 39.841999 14.240000 3.713000
549 0 1 0.000000 39.841999 21.849998 3.713000
550 0 1 0.000000 39.841999 14.240000 8.317000
551 0 1 0.000000 39.841999 21.849998 8.317000
552 0 1 0.000000 44.425003 16.622999 0.000000
553 0 1 0.000000 45.799999 12.030000 7.437000
554 0 1 0.000000 45.857002 15.743000 2.210000
555 0 1 0.000000 45.857002 15.743000 9.820000
556 0 1 0.000000 45.857002 20.347002 2.210000
557 0 1 0.000000 45.857002 20.347002 9.820000
558 0 1 0.000000 44.368000 14.240000 3.713000
559 0 1 0.000000 44.368000 21.849998 3.713000
560 0 1 0.000000 44.368000 14.240000 8.317000
561 0 1 0.000000 44.368000 21.849998 8.317000
562 0 1 0.000000 39.096001 18.045000 6.015000
563 0 1 0.000000 45.114002 18.045000 6.015000
564 0 1 0.000000 37.512001 18.045000 8.336000
565 0 1 0.000000 46.697998 18.045000 8.336000
566 0 1 0.000000 37.512001 18.045000 3.694000
567 0 1 0.000000 46.697998 18.045000 3.694000
568 0 1 0.000000 40.682999 15.725000 6.015000
569 0 1 0.000000 43.526997 15.725000 6.015000
570 0 1 0.000000 40.682999 20.365000 6.015000
571 0 1 0.000000 43.526997 20.365000 6.015000
572 0 1 0.000000 42.104996 3.006000 12.030000
573 0 1 0.000000 39.785000 7.437000 12.030000
574 0 1 0.000000 44.425003 7.437000 12.030000
575 0 1 0.000000 36.090000 0.000000 15.036000
576 0 1 0.000000 36.090000 2.321000 13.452001
577 0 1 0.000000 36.090000 2.321000 22.637999
578 0 1 0.000000 36.090000 9.709000 13.452001
579 0 1 0.000000 36.090000 9.709000 22.637999
580 0 1 0.000000 42.104996 9.024000 12.030000
581 0 1 0.000000 42.104996 1.422000 14.351000
582 0 1 0.000000 42.104996 10.608000 14.351000
583 0 1 0.000000 42.104996 1.422000 21.738998
584 0 1 0.000000 42.104996 10.608000 21.738998
585 0 1 0.000000 39.785000 4.593000 12.030000
586 0 1 0.000000 38.410000 0.000000 19.466999
587 0 1 0.000000 38.353001 3.713000 14.240000
588 0 1 0.000000 38.353001 3.713000 21.849998
589 0 1 0.000000 38.353001 8.317000 14.240000
590 0 1 0.000000 38.353001 8.317000 21.849998
591 0 1 0.000000 39.841999 2.210000 15.743000
592 0 1 0.000000 39.841999 9.820000 15.743000
593 0 1 0.000000 39.841999 2.210000 20.347002
594 0 1 0.000000 39.841999 9.820000 20.347002
595 0 1 0.000000 44.425003 4.593000 12.030000
596 0 1 0.000000 45.799999 0.000000 19.466999
597 0 1 0.000000 45.857002 3.713000 14.240000
598 0 1 0.000000 45.857002 3.713000 21.849998
599 0 1 0.000000 45.857002 8.317000 14.240000
600 0 1 0.000000 45.857002 8.317000 21.849998
601 0 1 0.000000 44.368000 2.210000 15.743000
602 0 1 0.000000 44.368000 9.820000 15.743000
603 0 1 0.000000 44.368000 2.210000 20.347002
604 0 1 0.000000 44.368000 9.820000 20.347002
605 0 1 0.000000 39.096001 6.015000 18.045000
606 0 1 0.000000 45.114002 6.015000 18.045000
607 0 1 0.000000 37.512001 6.015000 20.366001
608 0 1 0.000000 46.697998 6.015000 20.366001
609 0 1 0.000000 37.512001 6.015000 15.724000
610 0 1 0.000000 46.697998 6.015000 15.724000
611 0 1 0.000000 40.682999 3.695000 18.045000
612 0 1 0.000000 43.526997 3.695000 18.045000
613 0 1 0.000000 40.682999 8.335000 18.045000
614 0 1 0.000000 43.526997 8.335000 18.045000
615 0 1 0.000000 24.059999 24.059999 9.024000
616 0 1 0.000000 26.380001 24.059999 4.593000
617 0 1 0.000000 33.770000 24.059999 4.593000
618 0 1 0.000000 30.074999 15.036000 12.030000
619 0 1 0.000000 27.755001 19.466999 12.030000
620 0 1 0.000000 32.395000 19.466999 12.030000
621 0 1 0.000000 24.059999 12.030000 21.054001
622 0 1 0.000000 26.380001 12.030000 16.622999
623 0 1 0.000000 33.770000 12.030000 16.622999
624 0 1 0.000000 24.059999 21.738998 13.452001
625 0 1 0.000000 24.059999 21.738998 22.637999
626 0 1 0.000000 30.074999 21.054001 12.030000
627 0 1 0.000000 30.074999 13.452001 14.351000
628 0 1 0.000000 30.074999 22.637999 14.351000
629 0 1 0.000000 30.074999 13.452001 21.738998
630 0 1 0.000000 30.074999 22.637999 21.738998
631 0 1 0.000000 27.755001 16.622999 12.030000
632 0 1 0.000000 26.380001 12.030000 19.466999
633 0 1 0.000000 26.322998 15.743000 14.240000
634 0 1 0.000000 26.322998 15.743000 21.849998
635 0 1 0.000000 26.322998 20.347002 14.240000
636 0 1 0.000000 26.322998 20.347002 21.849998
637 0 1 0.000000 27.812000 14.240000 15.743000
638 0 1 0.000000 27.812000 21.849998 15.743000
639 0 1 0.000000 27.812000 14.240000 20.347002
640 0 1 0.000000 27.812000 21.849998 20.347002
641 0 1 0.000000 32.395000 16.622999 12.030000
642 0 1 0.000000 33.770000 12.030000 19.466999
643 0 1 0.000000 33.827000 15.743000 14.240000
644 0 1 0.000000 33.827000 15.743000 21.849998
645 0 1 0.000000 33.827000 20.347002 14.240000
646 0 1 0.000000 33.827000 20.347002 21.849998
647 0 1 0.000000 32.337997 14.240000 15.743000
648 0 1 0.000000 32.337997 21.849998 15.743000
649 0 1 0.000000 32.337997 14.240000 20.347002
650 0 1 0.000000 32.337997 21.849998 20.347002
651 0 1 0.000000 27.066000 18.045000 18.045000
652 0 1 0.000000 33.084000 18.045000 18.045000
653 0 1 0.000000 25.481998 18.045000 20.366001
654 0 1 0.000000 34.667999 18.045000 20.366001
655 0 1 0.000000 25.481998 18.045000 15.724000
656 0 1 0.000000 34.667999 18.045000 15.724000
657 0 1 0.000000 28.653000 15.725000 18.045000
658 0 1 0.000000 31.497000 15.725000 18.045000
659 0 1 0.000000 28.653000 20.365000 18.045000
660 0 1 0.000000 31.497000 20.365000 18.045000
661 0 1 0.000000 48.119999 12.030000 3.006000
662 0 1 0.000000 48.119999 14.351000 1.422000
663 0 1 0.000000 48.119999 14.351000 10.608000
664 0 1 0.000000 36.090000 24.059999 9.024000
665 0 1 0.000000 38.410000 24.059999 4.593000
666 0 1 0.000000 45.799999 24.059999 4.593000
667 0 1 0.000000 42.104996 15.036000 12.030000
668 0 1 0.000000 39.785000 19.466999 12.030000
669 0 1 0.000000 44.425003 19.466999 12.030000
670 0 1 0.000000 36.090000 12.030000 21.054001
671 0 1 0.000000 38.410000 12.030000 16.622999
672 0 1 0.000000 45.799999 12.030000 16.622999
673 0 1 0.000000 36.090000 12.030000 15.036000
674 0 1 0.000000 36.090000 14.351000 13.452001
675 0 1 0.000000 36.090000 14.351000 22.637999
676 0 1 0.000000 36.090000 21.738998 13.452001
677 0 1 0.000000 36.090000 21.738998 22.637999
678 0 1 0.000000 42.104996 21.054001 12.030000
679 0 1 0.000000 42.104996 13.452001 14.351000
680 0 1 0.000000 42.104996 22.637999 14.351000
681 0 1 0.000000 42.104996 13.452001 21.738998
682 0 1 0.000000 42.104996 22.637999 21.738998
683 0 1 0.000000 39.785000 16.622999 12.030000
684 0 1 0.000000 38.410000 12.030000 19.466999
685 0 1 0.000000 38.353001 15.743000 14.240000
686 0 1 0.000000 38.353001 15.743000 21.849998
687 0 1 0.000000 38.353001 20.347002 14.240000
688 0 1 0.000000 38.353001 20.347002 21.849998
689 0 1 0.000000 39.841999 14.240000 15.743000
690 0 1 0.000000 39.841999 21.849998 15.743000
691 0 1 0.000000 39.841999 14.240000 20.347002
692 0 1 0.000000 39.841999 21.849998 20.347002
693 0 1 0.000000 44.425003 16.622999 12.030000
694 0 1 0.000000 45.799999 12.030000 19.466999
695 0 1 0.000000 45.857002 15.743000 14.240000
696 0 1 0.000000 45.857002 15.743000 21.849998
697 0 1 0.000000 45.857002 20.347002 14.240000
698 0 1 0.000000 45.857002 20.347002 21.849998
699 0 1 0.000000 44.368000 14.240000 15.743000
700 0 1 0.000000 44.368000 21.849998 15.743000
701 0 1 0.000000 44.368000 14.240000 20.347002
702 0 1 0.000000 44.368000 21.849998 20.347002
703 0 1 0.000000 39.096001 18.045000 18.045000
704 0 1 0.000000 45.114002 18.045000 18.045000
705 0 1 0.000000 37.512001 18.045000 20.366001
706 0 1 0.000000 46.697998 18.045000 20.366001
707 0 1 0.000000 37.512001 18.045000 15.724000
708 0 1 0.000000 46.697998 18.045000 15.724000
709 0 1 0.000000 40.682999 15.725000 18.045000
710 0 1 0.000000 43.526997 15.725000 18.045000
711 0 1 0.000000 40.682999 20.365000 18.045000
712 0 1 0.000000 43.526997 20.365000 18.045000
713 0 1 0.000000 30.074999 3.006000 24.059999
714 0 1 0.000000 27.755001 7.437000 24.059999
715 0 1 0.000000 32.395000 7.437000 24.059999
716 0 1 0.000000 48.119999 0.000000 15.036000
717 0 1 0.000000 48.119999 2.321000 13.452001
718 0 1 0.000000 48.119999 2.321000 22.637999
719 0 1 0.000000 42.104996 3.006000 24.059999
720 0 1 0.000000 39.785000 7.437000 24.059999
721 0 1 0.000000 44.425003 7.437000 24.059999
722 0 1 0.000000 24.059999 24.059999 21.054001
723 0 1 0.000000 26.380001 24.059999 16.622999
724 0 1 0.000000 33.770000 24.059999 16.622999
725 0 1 0.000000 30.074999 15.036000 24.059999
726 0 1 0.000000 27.755001 19.466999 24.059999
727 0 1 0.000000 32.395000 19.466999 24.059999
728 0 1 0.000000 48.119999 12.030000 15.036000
729 0 1 0.000000 48.119999 14.351000 13.452001
730 0 1 0.000000 48.119999 14.351000 22.637999
731 0 1 0.000000 36.090000 24.059999 21.054001
732 0 1 0.000000 38.410000 24.059999 16.622999
733 0 1 0.000000 45.799999 24.059999 16.622999
734 0 1 0.000000 42.104996 15.036000 24.059999
735 0 1 0.000000 39.785000 19.466999 24.059999
736 0 1 0.000000 44.425003 19.466999 24.059999
737 0 1 0.000000 12.030000 24.059999 3.006000
738 0 1 0.000000 12.030000 26.380999 1.422000
739 0 1 0.000000 12.030000 26.380999 10.608000
740 0 1 0.000000 12.030000 33.769001 1.422000
741 0 1 0.000000 12.030000 33.769001 10.608000
742 0 1 0.000000 18.045000 33.084000 0.000000
743 0 1 0.000000 18.045000 25.481998 2.321000
744 0 1 0.000000 18.045000 34.667999 2.321000
745 0 1 0.000000 18.045000 25.481998 9.709000
746 0 1 0.000000 18.045000 34.667999 9.709000
747 0 1 0.000000 15.725000 28.653000 0.000000
748 0 1 0.000000 14.349999 24.059999 7.437000
749 0 1 0.000000 14.292999 27.773001 2.210000
750 0 1 0.000000 14.292999 27.773001 9.820000
751 0 1 0.000000 14.292999 32.376999 2.210000
752 0 1 0.000000 14.292999 32.376999 9.820000
753 0 1 0.000000 15.782000 26.270000 3.713000
754 0 1 0.000000 15.782000 33.880001 3.713000
755 0 1 0.000000 15.782000 26.270000 8.317000
756 0 1 0.000000 15.782000 33.880001 8.317000
757 0 1 0.000000 20.365000 28.653000 0.000000
758 0 1 0.000000 21.740000 24.059999 7.437000
759 0 1 0.000000 21.797001 27.773001 2.210000
760 0 1 0.000000 21.797001 27.773001 9.820000
761 0 1 0.000000 21.797001 32.376999 2.210000
762 0 1 0.000000 21.797001 32.376999 9.820000
763 0 1 0.000000 20.308001 26.270000 3.713000
764 0 1 0.000000 20.308001 33.880001 3.713000
765 0 1 0.000000 20.308001 26.270000 8.317000
766 0 1 0.000000 20.308001 33.880001 8.317000
767 0 1 0.000000 15.036000 30.074999 6.015000
768 0 1 0.000000 21.054001 30.074999 6.015000
769 0 1 0.000000 13.452001 30.074999 8.336000
770 0 1 0.000000 22.637999 30.074999 8.336000
771 0 1 0.000000 13.452001 30.074999 3.694000
772 0 1 0.000000 22.637999 30.074999 3.694000
773 0 1 0.000000 16.622999 27.755001 6.015000
774 0 1 0.000000 19.466999 27.755001 6.015000
775 0 1 0.000000 16.622999 32.395000 6.015000
776 0 1 0.000000 19.466999 32.395000 6.015000
777 0 1 0.000000 0.000000 36.090000 9.024000
778 0 1 0.000000 2.320000 36.090000 4.593000
779 0 1 0.000000 9.710000 36.090000 4.593000
780 0 1 0.000000 0.000000 45.798996 1.422000
781 0 1 0.000000 0.000000 45.798996 10.608000
782 0 1 0.000000 6.015000 45.114002 0.000000
783 0 1 0.000000 6.015000 37.512001 2.321000
784 0 1 0.000000 6.015000 46.697998 2.321000
785 0 1 0.000000 6.015000 37.512001 9.709000
786 0 1 0.000000 6.015000 46.697998 9.709000
787 0 1 0.000000 3.695000 40.682999 0.000000
788 0 1 0.000000 2.320000 36.090000 7.437000
789 0 1 0.000000 2.263000 39.803001 2.210000
790 0 1 0.000000 2.263000 39.803001 9.820000
791 0 1 0.000000 2.263000 44.407001 2.210000
792 0 1 0.000000 2.263000 44.407001 9.820000
793 0 1 0.000000 3.752000 38.299999 3.713000
794 0 1 0.000000 3.752000 45.910000 3.713000
795 0 1 0.000000 3.752000 38.299999 8.317000
796 0 1 0.000000 3.752000 45.910000 8.317000
797 0 1 0.000000 8.335000 40.682999 0.000000
798 0 1 0.000000 9.710000 36.090000 7.437000
799 0 1 0.000000 9.767000 39.803001 2.210000
800 0 1 0.000000 9.767000 39.803001 9.820000
801 0 1 0.000000 9.767000 44.407001 2.210000
802 0 1 0.000000 9.767000 44.407001 9.820000
803 0 1 0.000000 8.278000 38.299999 3.713000
804 0 1 0.000000 8.278000 45.910000 3.713000
805 0 1 0.000000 8.278000 38.299999 8.317000
806 0 1 0.000000 8.278000 45.910000 8.317000
807 0 1 0.000000 3.006000 42.104996 6.015000
808 0 1 0.000000 9.024000 42.104996 6.015000
809 0 1 0.000000 1.422000 42.104996 8.336000
810 0 1 0.000000 10.608000 42.104996 8.336000
811 0 1 0.000000 1.422000 42.104996 3.694000
812 0 1 0.000000 10.608000 42.104996 3.694000
813 0 1 0.000000 4.593000 39.785000 6.015000
814 0 1 0.000000 7.437000 39.785000 6.015000
815 0 1 0.000000 4.593000 44.425003 6.015000
816 0 1 0.000000 7.437000 44.425003 6.015000
817 0 1 0.000000 0.000000 33.769001 1.422000
818 0 1 0.000000 0.000000 33.769001 10.608000
819 0 1 0.000000 6.015000 33.084000 0.000000
820 0 1 0.000000 6.015000 25.481998 2.321000
821 0 1 0.000000 6.015000 34.667999 2.321000
822 0 1 0.000000 6.015000 25.481998 9.709000
823 0 1 0.000000 6.015000 34.667999 9.709000
824 0 1 0.000000 3.695000 28.653000 0.000000
825 0 1 0.000000 2.320000 24.059999 7.437000
826 0 1 0.000000 2.263000 27.773001 2.210000
827 0 1 0.000000 2.263000 27.773001 9.820000
828 0 1 0.000000 2.263000 32.376999 2.210000
829 0 1 0.000000 2.263000 32.376999 9.820000
830 0 1 0.000000 3.752000 26.270000 3.713000
831 0 1 0.000000 3.752000 33.880001 3.713000
832 0 1 0.000000 3.752000 26.270000 8.317000
833 0 1 0.000000 3.752000 33.880001 8.317000
834 0 1 0.000000 8.335000 28.653000 0.000000
835 0 1 0.000000 9.710000 24.059999 7.437000
836 0 1 0.000000 9.767000 27.773001 2.210000
837 0 1 0.000000 9.767000 27.773001 9.820000
838 0 1 0.000000 9.767000 32.376999 2.210000
839 0 1 0.000000 9.767000 32.376999 9.820000
840 0 1 0.000000 8.278000 26.270000 3.713000
841 0 1 0.000000 8.278000 33.880001 3.713000
842 0 1 0.000000 8.278000 26.270000 8.317000
843 0 1 0.000000 8.278000 33.880001 8.317000
844 0 1 0.000000 3.006000 30.074999 6.015000
845 0 1 0.000000 9.024000 30.074999 6.015000
846 0 1 0.000000 1.422000 30.074999 8.336000
847 0 1 0.000000 10.608000 30.074999 8.336000
848 0 1 0.000000 1.422000 30.074999 3.694000
849 0 1 0.000000 10.608000 30.074999 3.694000
850 0 1 0.000000 4.593000 27.755001 6.015000
851 0 1 0.000000 7.437000 27.755001 6.015000
852 0 1 0.000000 4.593000 32.395000 6.015000
853 0 1 0.000000 7.437000 32.395000 6.015000
854 0 1 0.000000 6.015000 27.066000 12.030000
855 0 1 0.000000 3.695000 31.497000 12.030000
856 0 1 0.000000 8.335000 31.497000 12.030000
857 0 1 0.000000 0.000000 33.769001 13.452001
858 0 1 0.000000 0.000000 33.769001 22.637999
859 0 1 0.000000 6.015000 33.084000 12.030000
860 0 1 0.000000 6.015000 25.481998 14.351000
861 0 1 0.000000 6.015000 34.667999 14.351000
862 0 1 0.000000 6.015000 25.481998 21.738998
863 0 1 0.000000 6.015000 34.667999 21.738998
864 0 1 0.000000 3.695000 28.653000 12.030000
865 0 1 0.000000 2.320000 24.059999 19.466999
866 0 1 0.000000 2.263000 27.773001 14.240000
867 0 1 0.000000 2.263000 27.773001 21.849998
868 0 1 0.000000 2.263000 32.376999 14.240000
869 0 1 0.000000 2.263000 32.376999 21.849998
870 0 1 0.000000 3.752000 26.270000 15.743000
871 0 1 0.000000 3.752000 33.880001 15.743000
872 0 1 0.000000 3.752000 26.270000 20.347002
873 0 1 0.000000 3.752000 33.880001 20.347002
874 0 1 0.000000 8.335000 28.653000 12.030000
875 0 1 0.000000 9.710000 24.059999 19.466999
876 0 1 0.000000 9.767000 27.773001 14.240000
877 0 1 0.000000 9.767000 27.773001 21.849998
878 0 1 0.000000 9.767000 32.376999 14.240000
879 0 1 0.000000 9.767000 32.376999 21.849998
880 0 1 0.000000 8.278000 26.270000 15.743000
881 0 1 0.000000 8.278000 33.880001 15.743000
882 0 1 0.000000 8.278000 26.270000 20.347002
883 0 1 0.000000 8.278000 33.880001 20.347002
884 0 1 0.000000 3.006000 30.074999 18.045000
885 0 1 0.000000 9.024000 30.074999 18.045000
886 0 1 0.000000 1.422000 30.074999 20.366001
887 0 1 0.000000 10.608000 30.074999 20.366001
888 0 1 0.000000 1.422000 30.074999 15.724000
889 0 1 0.000000 10.608000 30.074999 15.724000
890 0 1 0.000000 4.593000 27.755001 18.045000
891 0 1 0.000000 7.437000 27.755001 18.045000
892 0 1 0.000000 4.593000 32.395000 18.045000
893 0 1 0.000000 7.437000 32.395000 18.045000
894 0 1 0.000000 24.059999 24.059999 3.006000
895 0 1 0.000000 24.059999 26.380999 1.422000
896 0 1 0.000000 24.059999 26.380999 10.608000
897 0 1 0.000000 12.030000 36.090000 9.024000
898 0 1 0.000000 14.349999 36.090000 4.593000
899 0 1 0.000000 21.740000 36.090000 4.593000
900 0 1 0.000000 12.030000 36.090000 3.006000
901 0 1 0.000000 12.030000 38.410999 1.422000
902 0 1 0.000000 12.030000 38.410999 10.608000
903 0 1 0.000000 12.030000 45.798996 1.422000
904 0 1 0.000000 12.030000 45.798996 10.608000
905 0 1 0.000000 18.045000 45.114002 0.000000
906 0 1 0.000000 18.045000 37.512001 2.321000
907 0 1 0.000000 18.045000 46.697998 2.321000
908 0 1 0.000000 18.045000 37.512001 9.709000
909 0 1 0.000000 18.045000 46.697998 9.709000
910 0 1 0.000000 15.725000 40.682999 0.000000
911 0 1 0.000000 14.349999 36.090000 7.437000
912 0 1 0.000000 14.292999 39.803001 2.210000
913 0 1 0.000000 14.292999 39.803001 9.820000
914 0 1 0.000000 14.292999 44.407001 2.210000
915 0 1 0.000000 14.292999 44.407001 9.820000
916 0 1 0.000000 15.782000 38.299999 3.713000
917 0 1 0.000000 15.782000 45.910000 3.713000
918 0 1 0.000000 15.782000 38.299999 8.317000
919 0 1 0.000000 15.782000 45.910000 8.317000
920 0 1 0.000000 20.365000 40.682999 0.000000
921 0 1 0.000000 21.740000 36.090000 7.437000
922 0 1 0.000000 21.797001 39.803001 2.210000
923 0 1 0.000000 21.797001 39.803001 9.820000
924 0 1 0.000000 21.797001 44.407001 2.210000
925 0 1 0.000000 21.797001 44.407001 9.820000
926 0 1 0.000000 20.308001 38.299999 3.713000
927 0 1 0.000000 20.308001 45.910000 3.713000
928 0 1 0.000000 20.308001 38.299999 8.317000
929 0 1 0.000000 20.308001 45.910000 8.317000
930 0 1 0.000000 15.036000 42.104996 6.015000
931 0 1 0.000000 21.054001 42.104996 6.015000
932 0 1 0.000000 13.452001 42.104996 8.336000
933 0 1 0.000000 22.637999 42.104996 8.336000
934 0 1 0.000000 13.452001 42.104996 3.694000
935 0 1 0.000000 22.637999 42.104996 3.694000
936 0 1 0.000000 16.622999 39.785000 6.015000
937 0 1 0.000000 19.466999 39.785000 6.015000
938 0 1 0.000000 16.622999 44.425003 6.015000
939 0 1 0.000000 19.466999 44.425003 6.015000
940 0 1 0.000000 18.045000 27.066000 12.030000
941 0 1 0.000000 15.725000 31.497000 12.030000
942 0 1 0.000000 20.365000 31.497000 12.030000
943 0 1 0.000000 12.030000 24.059999 15.036000
944 0 1 0.000000 12.030000 26.380999 13.452001
945 0 1 0.000000 12.030000 26.380999 22.637999
946 0 1 0.000000 12.030000 33.769001 13.452001
947 0 1 0.000000 12.030000 33.769001 22.637999
948 0 1 0.000000 18.045000 33.084000 12.030000
949 0 1 0.000000 18.045000 25.481998 14.351000
950 0 1 0.000000 18.045000 34.667999 14.351000
951 0 1 0.000000 18.045000 25.481998 21.738998
952 0 1 0.000000 18.045000 34.667999 21.738998
953 0 1 0.000000 15.725000 28.653000 12.030000
954 0 1 0.000000 14.349999 24.059999 19.466999
955 0 1 0.000000 14.292999 27.773001 14.240000
956 0 1 0.000000 14.292999 27.773001 21.849998
957 0 1 0.000000 14.292999 32.376999 14.240000
958 0 1 0.000000 14.292999 32.376999 21.849998
959 0 1 0.000000 15.782000 26.270000 15.743000
960 0 1 0.000000 15.782000 33.880001 15.743000
961 0 1 0.000000 15.782000 26.270000 20.347002
962 0 1 0.000000 15.782000 33.880001 20.347002
963 0 1 0.000000 20.365000 28.653000 12.030000
964 0 1 0.000000 21.740000 24.059999 19.466999
965 0 1 0.000000 21.797001 27.773001 14.240000
966 0 1 0.000000 21.797001 27.773001 21.849998
967 0 1 0.000000 21.797001 32.376999 14.240000
968 0 1 0.000000 21.797001 32.376999 21.849998
969 0 1 0.000000 20.308001 26.270000 15.743000
970 0 1 0.000000 20.308001 33.880001 15.743000
971 0 1 0.000000 20.308001 26.270000 20.347002
972 0 1 0.000000 20.308001 33.880001 20.347002
973 0 1 0.000000 15.036000 30.074999 18.045000
974 0 1 0.000000 21.054001 30.074999 18.045000
975 0 1 0.000000 13.452001 30.074999 20.366001
976 0 1 0.000000 22.637999 30.074999 20.366001
977 0 1 0.000000 13.452001 30.074999 15.724000
978 0 1 0.000000 22.637999 30.074999 15.724000
979 0 1 0.000000 16.622999 27.755001 18.045000
980 0 1 0.000000 19.466999 27.755001 18.045000
981 0 1 0.000000 16.622999 32.395000 18.045000
982 0 1 0.000000 19.466999 32.395000 18.045000
983 0 1 0.000000 0.000000 48.119999 9.024000
984 0 1 0.000000 2.320000 48.119999 4.593000
985 0 1 0.000000 9.710000 48.119999 4.593000
986 0 1 0.000000 6.015000 39.096001 12.030000
987 0 1 0.000000 3.695000 43.526997 12.030000
988 0 1 0.000000 8.335000 43.526997 12.030000
989 0 1 0.000000 0.000000 36.090000 21.054001
990 0 1 0.000000 2.320000 36.090000 16.622999
991 0 1 0.000000 9.710000 36.090000 16.622999
992 0 1 0.000000 0.000000 45.798996 13.452001
993 0 1 0.000000 0.000000 45.798996 22.637999
994 0 1 0.000000 6.015000 45.114002 12.030000
995 0 1 0.000000 6.015000 37.512001 14.351000
996 0 1 0.000000 6.015000 46.697998 14.351000
997 0 1 0.000000 6.015000 37.512001 21.738998
998 0 1 0.000000 6.015000 46.697998 21.738998
999 0 1 0.000000 3.695000 40.682999 12.030000
1000 0 1 0.000000 2.320000 36.090000 19.466999
1001 0 1 0.000000 2.263000 39.803001 14.240000
1002 0 1 0.000000 2.263000 39.803001 21.849998
1003 0 1 0.000000 2.263000 44.407001 14.240000
1004 0 1 0.000000 2.263000 44.407001 21.849998
1005 0 1 0.000000 3.752000 38.299999 15.743000
1006 0 1 0.000000 3.752000 45.910000 15.743000
1007 0 1 0.000000 3.752000 38.299999 20.347002
1008 0 1 0.000000 3.752000 45.910000 20.347002
1009 0 1 0.000000 8.335000 40.682999 12.030000
1010 0 1 0.000000 9.710000 36.090000 19.466999
1011 0 1 0.000000 9.767000 39.803001 14.240000
1012 0 1 0.000000 9.767000 39.803001 21.849998
1013 0 1 0.000000 9.767000 44.407001 14.240000
1014 0 1 0.000000 9.767000 44.407001 21.849998
1015 0 1 0.000000 8.278000 38.299999 15.743000
1016 0 1 0.000000 8.278000 45.910000 15.743000
1017 0 1 0.000000 8.278000 38.299999 20.347002
1018 0 1 0.000000 8.278000 45.910000 20.347002
1019 0 1 0.000000 3.006000 42.104996 18.045000
1020 0 1 0.000000 9.024000 42.104996 18.045000
1021 0 1 0.000000 1.422000 42.104996 20.366001
1022 0 1 0.000000 10.608000 42.104996 20.366001
1023 0 1 0.000000 1.422000 42.104996 15.724000
1024 0 1 0.000000 10.608000 42.104996 15.724000
1025 0 1 0.000000 4.593000 39.785000 18.045000
1026 0 1 0.000000 7.437000 39.785000 18.045000
1027 0 1 0.000000 4.593000 44.425003 18.045000
1028 0 1 0.000000 7.437000 44.425003 18.045000
1029 0 1 0.000000 24.059999 36.090000 3.006000
1030 0 1 0.000000 24.059999 38.410999 1.422000
1031 0 1 0.000000 24.059999 38.410999 10.608000
1032 0 1 0.000000 12.030000 48.119999 9.024000
1033 0 1 0.000000 14.349999 48.119999 4.593000
1034 0 1 0.000000 21.740000 48.119999 4.593000
1035 0 1 0.000000 18.045000 39.096001 12.030000
1036 0 1 0.000000 15.725000 43.526997 12.030000
1037 0 1 0.000000 20.365000 43.526997 12.030000
1038 0 1 0.000000 12.030000 36.090000 21.054001
1039 0 1 0.000000 14.349999 36.090000 16.622999
1040 0 1 0.000000 21.740000 36.090000 16.622999
1041 0 1 0.000000 12.030000 36.090000 15.036000
1042 0 1 0.000000 12.030000 38.410999 13.452001
1043 0 1 0.000000 12.030000 38.410999 22.637999
1044 0 1 0.000000 12.030000 45.798996 13.452001
1045 0 1 0.000000 12.030000 45.798996 22.637999
1046 0 1 0.000000 18.045000 45.114002 12.030000
1047 0 1 0.000000 18.045000 37.512001 14.351000
1048 0 1 0.000000 18.045000 46.697998 14.351000
1049 0 1 0.000000 18.045000 37.512001 21.738998
1050 0 1 0.000000 18.045000 46.697998 21.738998
1051 0 1 0.000000 15.725000 40.682999 12.030000
1052 0 1 0.000000 14.349999 36.090000 19.466999
1053 0 1 0.000000 14.292999 39.803001 14.240000
1054 0 1 0.000000 14.292999 39.803001 21.849998
1055 0 1 0.000000 14.292999 44.407001 14.240000
1056 0 1 0.000000 14.292999 44.407001 21.849998
1057 0 1 0.000000 15.782000 38.299999 15.743000
1058 0 1 0.000000 15.782000 45.910000 15.743000
1059 0 1 0.000000 15.782000 38.299999 20.347002
1060 0 1 0.000000 15.782000 45.910000 20.347002
1061 0 1 0.000000 20.365000 40.682999 12.030000
1062 0 1 0.000000 21.740000 36.090000 19.466999
1063 0 1 0.000000 21.797001 39.803001 14.240000
1064 0 1 0.000000 21.797001 39.803001 21.849998
1065 0 1 0.000000 21.797001 44.407001 14.240000
1066 0 1 0.000000 21.797001 44.407001 21.849998
1067 0 1 0.000000 20.308001 38.299999 15.743000
1068 0 1 0.000000 20.308001 45.910000 15.743000
1069 0 1 0.000000 20.308001 38.299999 20.347002
1070 0 1 0.000000 20.308001 45.910000 20.347002
1071 0 1 0.000000 15.036000 42.104996 18.045000
1072 0 1 0.000000 21.054001 42.104996 18.045000
1073 0 1 0.000000 13.452001 42.104996 20.366001
1074 0 1 0.000000 22.637999 42.104996 20.366001
1075 0 1 0.000000 13.452001 42.104996 15.724000
1076 0 1 0.000000 22.637999 42.104996 15.724000
1077 0 1 0.000000 16.622999 39.785000 18.045000
1078 0 1 0.000000 19.466999 39.785000 18.045000
1079 0 1 0.000000 16.622999 44.425003 18.045000
1080 0 1 0.000000 19.466999 44.425003 18.045000
1081 0 1 0.000000 6.015000 27.066000 24.059999
1082 0 1 0.000000 3.695000 31.497000 24.059999
1083 0 1 0.000000 8.335000 31.497000 24.059999
1084 0 1 0.000000 24.059999 24.059999 15.036000
1085 0 1 0.000000 24.059999 26.380999 13.452001
1086 0 1 0.000000 24.059999 26.380999 22.637999
1087 0 1 0.000000 18.045000 27.066000 24.059999
1088 0 1 0.000000 15.725000 31.497000 24.059999
1089 0 1 0.000000 20.365000 31.497000 24.059999
1090 0 1 0.000000 0.000000 48.119999 21.054001
1091 0 1 0.000000 2.320000 48.119999 16.622999
1092 0 1 0.000000 9.710000 48.119999 16.622999
1093 0 1 0.000000 6.015000 39.096001 24.059999
1094 0 1 0.000000 3.695000 43.526997 24.059999
1095 0 1 0.000000 8.335000 43.526997 24.059999
1096 0 1 0.000000 24.059999 36.090000 15.036000
1097 0 1 0.000000 24.059999 38.410999 13.452001
1098 0 1 0.000000 24.059999 38.410999 22.637999
1099 0 1 0.000000 12.030000 48.119999 21.054001
1100 0 1 0.000000 14.349999 48.119999 16.622999
1101 0 1 0.000000 21.740000 48.119999 16.622999
1102 0 1 0.000000 18.045000 39.096001 24.059999
1103 0 1 0.000000 15.725000 43.526997 24.059999
1104 0 1 0.000000 20.365000 43.526997 24.059999
1105 0 1 0.000000 36.090000 24.059999 3.006000
1106 0 1 0.000000 36.090000 26.380999 1.422000
1107 0 1 0.000000 36.090000 26.380999 10.608000
1108 0 1 0.000000 36.090000 33.769001 1.422000
1109 0 1 0.000000 36.090000 33.769001 10.608000
1110 0 1 0.000000 42.104996 33.084000 0.000000
1111 0 1 0.000000 42.104996 25.481998 2.321000
1112 0 1 0.000000 42.104996 34.667999 2.321000
1113 0 1 0.000000 42.104996 25.481998 9.709000
1114 0 1 0.000000 42.104996 34.667999 9.709000
1115 0 1 0.000000 39.785000 28.653000 0.000000
1116 0 1 0.000000 38.410000 24.059999 7.437000
1117 0 1 0.000000 38.353001 27.773001 2.210000
1118 0 1 0.000000 38.353001 27.773001 9.820000
1119 0 1 0.000000 38.353001 32.376999 2.210000
1120 0 1 0.000000 38.353001 32.376999 9.820000
1121 0 1 0.000000 39.841999 26.270000 3.713000
1122 0 1 0.000000 39.841999 33.880001 3.713000
1123 0 1 0.000000 39.841999 26.270000 8.317000
1124 0 1 0.000000 39.841999 33.880001 8.317000
1125 0 1 0.000000 44.425003 28.653000 0.000000
1126 0 1 0.000000 45.799999 24.059999 7.437000
1127 0 1 0.000000 45.857002 27.773001 2.210000
1128 0 1 0.000000 45.857002 27.773001 9.820000
1129 0 1 0.000000 45.857002 32.376999 2.210000
1130 0 1 0.000000 45.857002 32.376999 9.820000
1131 0 1 0.000000 44.368000 26.270000 3.713000
1132 0 1 0.000000 44.368000 33.880001 3.713000
1133 0 1 0.000000 44.368000 26.270000 8.317000
1134 0 1 0.000000 44.368000 33.880001 8.317000
1135 0 1 0.000000 39.096001 30.074999 6.015000
1136 0 1 0.000000 45.114002 30.074999 6.015000
1137 0 1 0.000000 37.512001 30.074999 8.336000
1138 0 1 0.000000 46.697998 30.074999 8.336000
1139 0 1 0.000000 37.512001 30.074999 3.694000
1140 0 1 0.000000 46.697998 30.074999 3.694000
1141 0 1 0.000000 40.682999 27.755001 6.015000
1142 0 1 0.000000 43.526997 27.755001 6.015000
1143 0 1 0.000000 40.682999 32.395000 6.015000
1144 0 1 0.000000 43.526997 32.395000 6.015000
1145 0 1 0.000000 24.059999 36.090000 9.024000
1146 0 1 0.000000 26.380001 36.090000 4.593000
1147 0 1 0.000000 33.770000 36.090000 4.593000
1148 0 1 0.000000 24.059999 45.798996 1.422000
1149 0 1 0.000000 24.059999 45.798996 10.608000
1150 0 1 0.000000 30.074999 45.114002 0.000000
1151 0 1 0.000000 30.074999 37.512001 2.321000
1152 0 1 0.000000 30.074999 46.697998 2.321000
1153 0 1 0.000000 30.074999 37.512001 9.709000
1154 0 1 0.000000 30.074999 46.697998 9.709000
1155 0 1 0.000000 27.755001 40.682999 0.000000
1156 0 1 0.000000 26.380001 36.090000 7.437000
1157 0 1 0.000000 26.322998 39.803001 2.210000
1158 0 1 0.000000 26.322998 39.803001 9.820000
1159 0 1 0.000000 26.322998 44.407001 2.210000
1160 0 1 0.000000 26.322998 44.407001 9.820000
1161 0 1 0.000000 27.812000 38.299999 3.713000
1162 0 1 0.000000 27.812000 45.910000 3.713000
1163 0 1 0.000000 27.812000 38.299999 8.317000
1164 0 1 0.000000 27.812000 45.910000 8.317000
1165 0 1 0.000000 32.395000 40.682999 0.000000
1166 0 1 0.000000 33.770000 36.090000 7.437000
1167 0 1 0.000000 33.827000 39.803001 2.210000
1168 0 1 0.000000 33.827000 39.803001 9.820000
1169 0 1 0.000000 33.827000 44.407001 2.210000
1170 0 1 0.000000 33.827000 44.407001 9.820000
1171 0 1 0.000000 32.337997 38.299999 3.713000
1172 0 1 0.000000 32.337997 45.910000 3.713000
1173 0 1 0.000000 32.337997 38.299999 8.317000
1174 0 1 0.000000 32.337997 45.910000 8.317000
1175 0 1 0.000000 27.066000 42.104996 6.015000
1176 0 1 0.000000 33.084000 42.104996 6.015000
1177 0 1 0.000000 25.481998 42.104996 8.336000
1178 0 1 0.000000 34.667999 42.104996 8.336000
1179 0 1 0.000000 25.481998 42.104996 3.694000
1180 0 1 0.000000 34.667999 42.104996 3.694000
1181 0 1 0.000000 28.653000 39.785000 6.015000
1182 0 1 0.000000 31.497000 39.785000 6.015000
1183 0 1 0.000000 28.653000 44.425003 6.015000
1184 0 1 0.000000 31.497000 44.425003 6.015000
1185 0 1 0.000000 24.059999 33.769001 1.422000
1186 0 1 0.000000 24.059999 33.769001 10.608000
1187 0 1 0.000000 30.074999 33.084000 0.000000
1188 0 1 0.000000 30.074999 25.481998 2.321000
1189 0 1 0.000000 30.074999 34.667999 2.321000
1190 0 1 0.000000 30.074999 25.481998 9.709000
1191 0 1 0.000000 30.074999 34.667999 9.709000
1192 0 1 0.000000 27.755001 28.653000 0.000000
1193 0 1 0.000000 26.380001 24.059999 7.437000
1194 0 1 0.000000 26.322998 27.773001 2.210000
1195 0 1 0.000000 26.322998 27.773001 9.820000
1196 0 1 0.000000 26.322998 32.376999 2.210000
1197 0 1 0.000000 26.322998 32.376999 9.820000
1198 0 1 0.000000 27.812000 26.270000 3.713000
1199 0 1 0.000000 27.812000 33.880001 3.713000
1200 0 1 0.000000 27.812000 26.270000 8.317000
1201 0 1 0.000000 27.812000 33.880001 8.317000
1202 0 1 0.000000 32.395000 28.653000 0.000000
1203 0 1 0.000000 33.770000 24.059999 7.437000
1204 0 1 0.000000 33.827000 27.773001 2.210000
1205 0 1 0.000000 33.827000 27.773001 9.820000
1206 0 1 0.000000 33.827000 32.376999 2.210000
1207 0 1 0.000000 33.827000 32.376999 9.820000
1208 0 1 0.000000 32.337997 26.270000 3.713000
1209 0 1 0.000000 32.337997 33.880001 3.713000
1210 0 1 0.000000 32.337997 26.270000 8.317000
1211 0 1 0.000000 32.337997 33.880001 8.317000
1212 0 1 0.000000 27.066000 30.074999 6.015000
1213 0 1 0.000000 33.084000 30.074999 6.015000
1214 0 1 0.000000 25.481998 30.074999 8.336000
1215 0 1 0.000000 34.667999 30.074999 8.336000
1216 0 1 0.000000 25.481998 30.074999 3.694000
1217 0 1 0.000000 34.667999 30.074999 3.694000
1218 0 1 0.000000 28.653000 27.755001 6.015000
1219 0 1 0.000000 31.497000 27.755001 6.015000
1220 0 1 0.000000 28.653000 32.395000 6.015000
1221 0 1 0.000000 31.497000 32.395000 6.015000
1222 0 1 0.000000 30.074999 27.066000 12.030000
1223 0 1 0.000000 27.755001 31.497000 12.030000
1224 0 1 0.000000 32.395000 31.497000 12.030000
1225 0 1 0.000000 24.059999 33.769001 13.452001
1226 0 1 0.000000 24.059999 33.769001 22.637999
1227 0 1 0.000000 30.074999 33.084000 12.030000
1228 0 1 0.000000 30.074999 25.481998 14.351000
1229 0 1 0.000000 30.074999 34.667999 14.351000
1230 0 1 0.000000 30.074999 25.481998 21.738998
1231 0 1 0.000000 30.074999 34.667999 21.738998
1232 0 1 0.000000 27.755001 28.653000 12.030000
1233 0 1 0.000000 26.380001 24.059999 19.466999
1234 0 1 0.000000 26.322998 27.773001 14.240000
1235 0 1 0.000000 26.322998 27.773001 21.849998
1236 0 1 0.000000 26.322998 32.376999 14.240000
1237 0 1 0.000000 26.322998 32.376999 21.849998
1238 0 1 0.000000 27.812000 26.270000 15.743000
1239 0 1 0.000000 27.812000 33.880001 15.743000
1240 0 1 0.000000 27.812000 26.270000 20.347002
1241 0 1 0.000000 27.812000 33.880001 20.347002
1242 0 1 0.000000 32.395000 28.653000 12.030000
1243 0 1 0.000000 33.770000 24.059999 19.466999
1244 0 1 0.000000 33.827000 27.773001 14.240000
1245 0 1 0.000000 33.827000 27.773001 21.849998
1246 0 1 0.000000 33.827000 32.376999 14.240000
1247 0 1 0.000000 33.827000 32.376999 21.849998
1248 0 1 0.000000 32.337997 26.270000 15.743000
1249 0 1 0.000000 32.337997 33.880001 15.743000
1250 0 1 0.000000 32.337997 26.270000 20.347002
1251 0 1 0.000000 32.337997 33.880001 20.347002
1252 0 1 0.000000 27.066000 30.074999 18.045000
1253 0 1 0.000000 33.084000 30.074999 18.045000
1254 0 1 0.000000 25.481998 30.074999 20.366001
1255 0 1 0.000000 34.667999 30.074999 20.366001
1256 0 1 0.000000 25.481998 30.074999 15.724000
1257 0 1 0.000000 34.667999 30.074999 15.724000
1258 0 1 0.000000 28.653000 27.755001 18.045000
1259 0 1 0.000000 31.497000 27.755001 18.045000
1260 0 1 0.000000 28.653000 32.395000 18.045000
1261 0 1 0.000000 31.497000 32.395000 18.045000
1262 0 1 0.000000 48.119999 24.059999 3.006000
1263 0 1 0.000000 48.119999 26.380999 1.422000
1264 0 1 0.000000 48.119999 26.380999 10.608000
1265 0 1 0.000000 36.090000 36.090000 9.024000
1266 0 1 0.000000 38.410000 36.090000 4.593000
1267 0 1 0.000000 45.799999 36.090000 4.593000
1268 0 1 0.000000 36.090000 36.090000 3.006000
1269 0 1 0.000000 36.090000 38.410999 1.422000
1270 0 1 0.000000 36.090000 38.410999 10.608000
1271 0 1 0.000000 36.090000 45.798996 1.422000
1272 0 1 0.000000 36.090000 45.798996 10.608000
1273 0 1 0.000000 42.104996 45.114002 0.000000
1274 0 1 0.000000 42.104996 37.512001 2.321000
1275 0 1 0.000000 42.104996 46.697998 2.321000
1276 0 1 0.000000 42.104996 37.512001 9.709000
1277 0 1 0.000000 42.104996 46.697998 9.709000
1278 0 1 0.000000 39.785000 40.682999 0.000000
1279 0 1 0.000000 38.410000 36.090000 7.437000
1280 0 1 0.000000 38.353001 39.803001 2.210000
1281 0 1 0.000000 38.353001 39.803001 9.820000
1282 0 1 0.000000 38.353001 44.407001 2.210000
1283 0 1 0.000000 38.353001 44.407001 9.820000
1284 0 1 0.000000 39.841999 38.299999 3.713000
1285 0 1 0.000000 39.841999 45.910000 3.713000
1286 0 1 0.000000 39.841999 38.299999 8.317000
1287 0 1 0.000000 39.841999 45.910000 8.317000
1288 0 1 0.000000 44.425003 40.682999 0.000000
1289 0 1 0.000000 45.799999 36.090000 7.437000
1290 0 1 0.000000 45.857002 39.803001 2.210000
1291 0 1 0.000000 45.857002 39.803001 9.820000
1292 0 1 0.000000 45.857002 44.407001 2.210000
1293 0 1 0.000000 45.857002 44.407001 9.820000
1294 0 1 0.000000 44.368000 38.299999 3.713000
1295 0 1 0.000000 44.368000 45.910000 3.713000
1296 0 1 0.000000 44.368000 38.299999 8.317000
1297 0 1 0.000000 44.368000 45.910000 8.317000
1298 0 1 0.000000 39.096001 42.104996 6.015000
1299 0 1 0.000000 45.114002 42.104996 6.015000
1300 0 1 0.000000 37.512001 42.104996 8.336000
1301 0 1 0.000000 46.697998 42.104996 8.336000
1302 0 1 0.000000 37.512001 42.104996 3.694000
1303 0 1 0.000000 46.697998 42.104996 3.694000
1304 0 1 0.000000 40.682999 39.785000 6.015000
1305 0 1 0.000000 43.526997 39.785000 6.015000
1306 0 1 0.000000 40.682999 44.425003 6.015000
1307 0 1 0.000000 43.526997 44.425003 6.015000
1308 0 1 0.000000 42.104996 27.066000 12.030000
1309 0 1 0.000000 39.785000 31.497000 12.030000
1310 0 1 0.000000 44.425003 31.497000 12.030000
1311 0 1 0.000000 36.090000 24.059999 15.036000
1312 0 1 0.000000 36.090000 26.380999 13.452001
1313 0 1 0.000000 36.090000 26.380999 22.637999
1314 0 1 0.000000 36.090000 33.769001 13.452001
1315 0 1 0.000000 36.090000 33.769001 22.637999
1316 0 1 0.000000 42.104996 33.084000 12.030000
1317 0 1 0.000000 42.104996 25.481998 14.351000
1318 0 1 0.000000 42.104996 34.667999 14.351000
1319 0 1 0.000000 42.104996 25.481998 21.738998
1320 0 1 0.000000 42.104996 34.667999 21.738998
1321 0 1 0.000000 39.785000 28.653000 12.030000
1322 0 1 0.000000 38.410000 24.059999 19.466999
1323 0 1 0.000000 38.353001 27.773001 14.240000
1324 0 1 0.000000 38.353001 27.773001 21.849998
1325 0 1 0.000000 38.353001 32.376999 14.240000
1326 0 1 0.000000 38.353001 32.376999 21.849998
1327 0 1 0.000000 39.841999 26.270000 15.743000
1328 0 1 0.000000 39.841999 33.880001 15.743000
1329 0 1 0.000000 39.841999 26.270000 20.347002
1330 0 1 0.000000 39.841999 33.880001 20.347002
1331 0 1 0.000000 44.425003 28.653000 12.030000
1332 0 1 0.000000 45.799999 24.059999 19.466999
1333 0 1 0.000000 45.857002 27.773001 14.240000
1334 0 1 0.000000 45.857002 27.773001 21.849998
1335 0 1 0.000000 45.857002 32.376999 14.240000
1336 0 1 0.000000 45.857002 32.376999 21.849998
1337 0 1 0.000000 44.368000 26.270000 15.743000
1338 0 1 0.000000 44.368000 33.880001 15.743000
1339 0 1 0.000000 44.368000 26.270000 20.347002
1340 0 1 0.000000 44.368000 33.880001 20.347002
1341 0 1 0.000000 39.096001 30.074999 18.045000
1342 0 1 0.000000 45.114002 30.074999 18.045000
1343 0 1 0.000000 37.512001 30.074999 20.366001
1344 0 1 0.000000 46.697998 30.074999 20.366001
1345 0 1 0.000000 37.512001 30.074999 15.724000
1346 0 1 0.000000 46.697998 30.074999 15.724000
1347 0 1 0.000000 40.682999 27.755001 18.045000
1348 0 1 0.000000 43.526997 27.755001 18.045000
1349 0 1 0.000000 40.682999 32.395000 18.045000
1350 0 1 0.000000 43.526997 32.395000 18.045000
1351 0 1 0.000000 24.059999 48.119999 9.024000
1352 0 1 0.000000 26.380001 48.119999 4.593000
1353 0 1 0.000000 33.770000 48.119999 4.593000
1354 0 1 0.000000 30.074999 39.096001 12.030000
1355 0 1 0.000000 27.755001 43.526997 12.030000
1356 0 1 0.000000 32.395000 43.526997 12.030000
1357 0 1 0.000000 24.059999 36.090000 21.054001
1358 0 1 0.000000 26.380001 36.090000 16.622999
1359 0 1 0.000000 33.770000 36.090000 16.622999
1360 0 1 0.000000 24.059999 45.798996 13.452001
1361 0 1 0.000000 24.059999 45.798996 22.637999
1362 0 1 0.000000 30.074999 45.114002 12.030000
1363 0 1 0.000000 30.074999 37.512001 14.351000
1364 0 1 0.000000 30.074999 46.697998 14.351000
1365 0 1 0.000000 30.074999 37.512001 21.738998
1366 0 1 0.000000 30.074999 46.697998 21.738998
1367 0 1 0.000000 27.755001 40.682999 12.030000
1368 0 1 0.000000 26.380001 36.090000 19.466999
1369 0 1 0.000000 26.322998 39.803001 14.240000
1370 0 1 0.000000 26.322998 39.803001 21.849998
1371 0 1 0.000000 26.322998 44.407001 14.240000
1372 0 1 0.000000 26.322998 44.407001 21.849998
1373 0 1 0.000000 27.812000 38.299999 15.743000
1374 0 1 0.000000 27.812000 45.910000 15.743000
1375 0 1 0.000000 27.812000 38.299999 20.347002
1376 0 1 0.000000 27.812000 45.910000 20.347002
1377 0 1 0.000000 32.395000 40.682999 12.030000
1378 0 1 0.000000 33.770000 36.090000 19.466999
1379 0 1 0.000000 33.827000 39.803001 14.240000
1380 0 1 0.000000 33.827000 39.803001 21.849998
1381 0 1 0.000000 33.827000 44.407001 14.240000
1382 0 1 0.000000 33.827000 44.407001 21.849998
1383 0 1 0.000000 32.337997 38.299999 15.743000
1384 0 1 0.000000 32.337997 45.910000 15.743000
1385 0 1 0.000000 32.337997 38.299999 20.347002
1386 0 1 0.000000 32.337997 45.910000 20.347002
1387 0 1 0.000000 27.066000 42.104996 18.045000
1388 0 1 0.000000 33.084000 42.104996 18.045000
1389 0 1 0.000000 25.481998 42.104996 20.366001
1390 0 1 0.000000 34.667999 42.104996 20.366001
1391 0 1 0.000000 25.481998 42.104996 15.724000
1392 0 1 0.000000 34.667999 42.104996 15.724000
1393 0 1 0.000000 28.653000 39.785000 18.045000
1394 0 1 0.000000 31.497000 39.785000 18.045000
1395 0 1 0.000000 28.653000 44.425003 18.045000
1396 0 1 0.000000 31.497000 44.425003 18.045000
1397 0 1 0.000000 48.119999 36.090000 3.006000
1398 0 1 0.000000 48.119999 38.410999 1.422000
1399 0 1 0.000000 48.119999 38.410999 10.608000
1400 0 1 0.000000 36.090000 48.119999 9.024000
1401 0 1 0.000000 38.410000 48.119999 4.593000
1402 0 1 0.000000 45.799999 48.119999 4.593000
1403 0 1 0.000000 42.104996 39.096001 12.030000
1404 0 1 0.000000 39.785000 43.526997 12.030000
1405 0 1 0.000000 44.425003 43.526997 12.030000
1406 0 1 0.000000 36.090000 36.090000 21.054001
1407 0 1 0.000000 38.410000 36.090000 16.622999
1408 0 1 0.000000 45.799999 36.090000 16.622999
1409 0 1 0.000000 36.090000 36.090000 15.036000
1410 0 1 0.000000 36.090000 38.410999 13.452001
1411 0 1 0.000000 36.090000 38.410999 22.637999
1412 0 1 0.000000 36.090000 45.798996 13.452001
1413 0 1 0.000000 36.090000 45.798996 22.637999
1414 0 1 0.000000 42.104996 45.114002 12.030000
1415 0 1 0.000000 42.104996 37.512001 14.351000
1416 0 1 0.000000 42.104996 46.697998 14.351000
1417 0 1 0.000000 42.104996 37.512001 21.738998
1418 0 1 0.000000 42.104996 46.697998 21.738998
1419 0 1 0.000000 39.785000 40.682999 12.030000
1420 0 1 0.000000 38.410000 36.090000 19.466999
1421 0 1 0.000000 38.353001 39.803001 14.240000
1422 0 1 0.000000 38.353001 39.803001 21.849998
1423 0 1 0.000000 38.353001 44.407001 14.240000
1424 0 1 0.000000 38.353001 44.407001 21.849998
1425 0 1 0.000000 39.841999 38.299999 15.743000
1426 0 1 0.000000 39.841999 45.910000 15.743000
1427 0 1 0.000000 39.841999 38.299999 20.347002
1428 0 1 0.000000 39.841999 45.910000 20.347002
1429 0 1 0.000000 44.425003 40.682999 12.030000
1430 0 1 0.000000 45.799999 36.090000 19.466999
1431 0 1 0.000000 45.857002 39.803001 14.240000
1432 0 1 0.000000 45.857002 39.803001 21.849998
1433 0 1 0.000000 45.857002 44.407001 14.240000
1434 0 1 0.000000 45.857002 44.407001 21.849998
1435 0 1 0.000000 44.368000 38.299999 15.743000
1436 0 1 0.000000 44.368000 45.910000 15.743000
1437 0 1 0.000000 44.368000 38.299999 20.347002
1438 0 1 0.000000 44.368000 45.910000 20.347002
1439 0 1 0.000000 39.096001 42.104996 18.045000
1440 0 1 0.000000 45.114002 42.104996 18.045000
1441 0 1 0.000000 37.512001 42.104996 20.366001
1442 0 1 0.000000 46.697998 42.104996 20.366001
1443 0 1 0.000000 37.512001 42.104996 15.724000
1444 0 1 0.000000 46.697998 42.104996 15.724000
1445 0 1 0.000000 40.682999 39.785000 18.045000
1446 0 1 0.000000 43.526997 39.785000 18.045000
1447 0 1 0.000000 40.682999 44.425003 18.045000
1448 0 1 0.000000 43.526997 44.425003 18.045000
1449 0 1 0.000000 30.074999 27.066000 24.059999
1450 0 1 0.000000 27.755001 31.497000 24.059999
1451 0 1 0.000000 32.395000 31.497000 24.059999
1452 0 1 0.000000 48.119999 24.059999 15.036000
1453 0 1 0.000000 48.119999 26.380999 13.452001
1454 0 1 0.000000 48.119999 26.380999 22.637999
1455 0 1 0.000000 42.104996 27.066000 24.059999
1456 0 1 0.000000 39.785000 31.497000 24.059999
1457 0 1 0.000000 44.425003 31.497000 24.059999
1458 0 1 0.000000 24.059999 48.119999 21.054001
1459 0 1 0.000000 26.380001 48.119999 16.622999
1460 0 1 0.000000 33.770000 48.119999 16.622999
1461 0 1 0.000000 30.074999 39.096001 24.059999
1462 0 1 0.000000 27.755001 43.526997 24.059999
1463 0 1 0.000000 32.395000 43.526997 24.059999
1464 0 1 0.000000 48.119999 36.090000 15.036000
1465 0 1 0.000000 48.119999 38.410999 13.452001
1466 0 1 0.000000 48.119999 38.410999 22.637999
1467 0 1 0.000000 36.090000 48.119999 21.054001
1468 0 1 0.000000 38.410000 48.119999 16.622999
1469 0 1 0.000000 45.799999 48.119999 16.622999
1470 0 1 0.000000 42.104996 39.096001 24.059999
1471 0 1 0.000000 39.785000 43.526997 24.059999
1472 0 1 0.000000 44.425003 43.526997 24.059999
1473 0 1 0.000000 12.030000 0.000000 27.066000
1474 0 1 0.000000 12.030000 2.321000 25.481998
1475 0 1 0.000000 12.030000 2.321000 34.667999
1476 0 1 0.000000 12.030000 9.709000 25.481998
1477 0 1 0.000000 12.030000 9.709000 34.667999
1478 0 1 0.000000 18.045000 9.024000 24.059999
1479 0 1 0.000000 18.045000 1.422000 26.380999
1480 0 1 0.000000 18.045000 10.608000 26.380999
1481 0 1 0.000000 18.045000 1.422000 33.769001
1482 0 1 0.000000 18.045000 10.608000 33.769001
1483 0 1 0.000000 15.725000 4.593000 24.059999
1484 0 1 0.000000 14.349999 0.000000 31.497000
1485 0 1 0.000000 14.292999 3.713000 26.270000
1486 0 1 0.000000 14.292999 3.713000 33.880001
1487 0 1 0.000000 14.292999 8.317000 26.270000
1488 0 1 0.000000 14.292999 8.317000 33.880001
1489 0 1 0.000000 15.782000 2.210000 27.773001
1490 0 1 0.000000 15.782000 9.820000 27.773001
1491 0 1 0.000000 15.782000 2.210000 32.376999
1492 0 1 0.000000 15.782000 9.820000 32.376999
1493 0 1 0.000000 20.365000 4.593000 24.059999
1494 0 1 0.000000 21.740000 0.000000 31.497000
1495 0 1 0.000000 21.797001 3.713000 26.270000
1496 0 1 0.000000 21.797001 3.713000 33.880001
1497 0 1 0.000000 21.797001 8.317000 26.270000
1498 0 1 0.000000 21.797001 8.317000 33.880001
1499 0 1 0.000000 20.308001 2.210000 27.773001
1500 0 1 0.000000 20.308001 9.820000 27.773001
1501 0 1 0.000000 20.308001 2.210000 32.376999
1502 0 1 0.000000 20.308001 9.820000 32.376999
1503 0 1 0.000000 15.036000 6.015000 30.074999
1504 0 1 0.000000 21.054001 6.015000 30.074999
1505 0 1 0.000000 13.452001 6.015000 32.396000
1506 0 1 0.000000 22.637999 6.015000 32.396000
1507 0 1 0.000000 13.452001 6.015000 27.754000
1508 0 1 0.000000 22.637999 6.015000 27.754000
1509 0 1 0.000000 16.622999 3.695000 30.074999
1510 0 1 0.000000 19.466999 3.695000 30.074999
1511 0 1 0.000000 16.622999 8.335000 30.074999
1512 0 1 0.000000 19.466999 8.335000 30.074999
1513 0 1 0.000000 0.000000 12.030000 33.084000
1514 0 1 0.000000 2.320000 12.030000 28.653000
1515 0 1 0.000000 9.710000 12.030000 28.653000
1516 0 1 0.000000 0.000000 21.738998 25.481998
1517 0 1 0.000000 0.000000 21.738998 34.667999
1518 0 1 0.000000 6.015000 21.054001 24.059999
1519 0 1 0.000000 6.015000 13.452001 26.380999
1520 0 1 0.000000 6.015000 22.637999 26.380999
1521 0 1 0.000000 6.015000 13.452001 33.769001
1522 0 1 0.000000 6.015000 22.637999 33.769001
1523 0 1 0.000000 3.695000 16.622999 24.059999
1524 0 1 0.000000 2.320000 12.030000 31.497000
1525 0 1 0.000000 2.263000 15.743000 26.270000
1526 0 1 0.000000 2.263000 15.743000 33.880001
1527 0 1 0.000000 2.263000 20.347002 26.270000
1528 0 1 0.000000 2.263000 20.347002 33.880001
1529 0 1 0.000000 3.752000 14.240000 27.773001
1530 0 1 0.000000 3.752000 21.849998 27.773001
1531 0 1 0.000000 3.752000 14.240000 32.376999
1532 0 1 0.000000 3.752000 21.849998 32.376999
1533 0 1 0.000000 8.335000 16.622999 24.059999
1534 0 1 0.000000 9.710000 12.030000 31.497000
1535 0 1 0.000000 9.767000 15.743000 26.270000
1536 0 1 0.000000 9.767000 15.743000 33.880001
1537 0 1 0.000000 9.767000 20.347002 26.270000
1538 0 1 0.000000 9.767000 20.347002 33.880001
1539 0 1 0.000000 8.278000 14.240000 27.773001
1540 0 1 0.000000 8.278000 21.849998 27.773001
1541 0 1 0.000000 8.278000 14.240000 32.376999
1542 0 1 0.000000 8.278000 21.849998 32.376999
1543 0 1 0.000000 3.006000 18.045000 30.074999
1544 0 1 0.000000 9.024000 18.045000 30.074999
1545 0 1 0.000000 1.422000 18.045000 32.396000
1546 0 1 0.000000 10.608000 18.045000 32.396000
1547 0 1 0.000000 1.422000 18.045000 27.754000
1548 0 1 0.000000 10.608000 18.045000 27.754000
1549 0 1 0.000000 4.593000 15.725000 30.074999
1550 0 1 0.000000 7.437000 15.725000 30.074999
1551 0 1 0.000000 4.593000 20.365000 30.074999
1552 0 1 0.000000 7.437000 20.365000 30.074999
1553 0 1 0.000000 0.000000 9.709000 25.481998
1554 0 1 0.000000 0.000000 9.709000 34.667999
1555 0 1 0.000000 6.015000 9.024000 24.059999
1556 0 1 0.000000 6.015000 1.422000 26.380999
1557 0 1 0.000000 6.015000 10.608000 26.380999
1558 0 1 0.000000 6.015000 1.422000 33.769001
1559 0 1 0.000000 6.015000 10.608000 33.769001
1560 0 1 0.000000 3.695000 4.593000 24.059999
1561 0 1 0.000000 2.320000 0.000000 31.497000
1562 0 1 0.000000 2.263000 3.713000 26.270000
1563 0 1 0.000000 2.263000 3.713000 33.880001
1564 0 1 0.000000 2.263000 8.317000 26.270000
1565 0 1 0.000000 2.263000 8.317000 33.880001
1566 0 1 0.000000 3.752000 2.210000 27.773001
1567 0 1 0.000000 3.752000 9.820000 27.773001
1568 0 1 0.000000 3.752000 2.210000 32.376999
1569 0 1 0.000000 3.752000 9.820000 32.376999
1570 0 1 0.000000 8.335000 4.593000 24.059999
1571 0 1 0.000000 9.710000 0.000000 31.497000
1572 0 1 0.000000 9.767000 3.713000 26.270000
1573 0 1 0.000000 9.767000 3.713000 33.880001
1574 0 1 0.000000 9.767000 8.317000 26.270000
1575 0 1 0.000000 9.767000 8.317000 33.880001
1576 0 1 0.000000 8.278000 2.210000 27.773001
1577 0 1 0.000000 8.278000 9.820000 27.773001
1578 0 1 0.000000 8.278000 2.210000 32.376999
1579 0 1 0.000000 8.278000 9.820000 32.376999
1580 0 1 0.000000 3.006000 6.015000 30.074999
1581 0 1 0.000000 9.024000 6.015000 30.074999
1582 0 1 0.000000 1.422000 6.015000 32.396000
1583 0 1 0.000000 10.608000 6.015000 32.396000
1584 0 1 0.000000 1.422000 6.015000 27.754000
1585 0 1 0.000000 10.608000 6.015000 27.754000
1586 0 1 0.000000 4.593000 3.695000 30.074999
1587 0 1 0.000000 7.437000 3.695000 30.074999
1588 0 1 0.000000 4.593000 8.335000 30.074999
1589 0 1 0.000000 7.437000 8.335000 30.074999
1590 0 1 0.000000 6.015000 3.006000 36.090000
1591 0 1 0.000000 3.695000 7.437000 36.090000
1592 0 1 0.000000 8.335000 7.437000 36.090000
1593 0 1 0.000000 0.000000 9.709000 37.512001
1594 0 1 0.000000 0.000000 9.709000 46.697998
1595 0 1 0.000000 6.015000 9.024000 36.090000
1596 0 1 0.000000 6.015000 1.422000 38.410999
1597 0 1 0.000000 6.015000 10.608000 38.410999
1598 0 1 0.000000 6.015000 1.422000 45.798996
1599 0 1 0.000000 6.015000 10.608000 45.798996
1600 0 1 0.000000 3.695000 4.593000 36.090000
1601 0 1 0.000000 2.320000 0.000000 43.526997
1602 0 1 0.000000 2.263000 3.713000 38.299999
1603 0 1 0.000000 2.263000 3.713000 45.910000
1604 0 1 0.000000 2.263000 8.317000 38.299999
1605 0 1 0.000000 2.263000 8.317000 45.910000
1606 0 1 0.000000 3.752000 2.210000 39.803001
1607 0 1 0.000000 3.752000 9.820000 39.803001
1608 0 1 0.000000 3.752000 2.210000 44.407001
1609 0 1 0.000000 3.752000 9.820000 44.407001
1610 0 1 0.000000 8.335000 4.593000 36.090000
1611 0 1 0.000000 9.710000 0.000000 43.526997
1612 0 1 0.000000 9.767000 3.713000 38.299999
1613 0 1 0.000000 9.767000 3.713000 45.910000
1614 0 1 0.000000 9.767000 8.317000 38.299999
1615 0 1 0.000000 9.767000 8.317000 45.910000
1616 0 1 0.000000 8.278000 2.210000 39.803001
1617 0 1 0.000000 8.278000 9.820000 39.803001
1618 0 1 0.000000 8.278000 2.210000 44.407001
1619 0 1 0.000000 8.278000 9.820000 44.407001
1620 0 1 0.000000 3.006000 6.015000 42.104996
1621 0 1 0.000000 9.024000 6.015000 42.104996
1622 0 1 0.000000 1.422000 6.015000 44.426003
1623 0 1 0.000000 10.608000 6.015000 44.426003
1624 0 1 0.000000 1.422000 6.015000 39.784000
1625 0 1 0.000000 10.608000 6.015000 39.784000
1626 0 1 0.000000 4.593000 3.695000 42.104996
1627 0 1 0.000000 7.437000 3.695000 42.104996
1628 0 1 0.000000 4.593000 8.335000 42.104996
1629 0 1 0.000000 7.437000 8.335000 42.104996
1630 0 1 0.000000 24.059999 0.000000 27.066000
1631 0 1 0.000000 24.059999 2.321000 25.481998
1632 0 1 0.000000 24.059999 2.321000 34.667999
1633 0 1 0.000000 12.030000 12.030000 33.084000
1634 0 1 0.000000 14.349999 12.030000 28.653000
1635 0 1 0.000000 21.740000 12.030000 28.653000
1636 0 1 0.000000 12.030000 12.030000 27.066000
1637 0 1 0.000000 12.030000 14.351000 25.481998
1638 0 1 0.000000 12.030000 14.351000 34.667999
1639 0 1 0.000000 12.030000 21.738998 25.481998
1640 0 1 0.000000 12.030000 21.738998 34.667999
1641 0 1 0.000000 18.045000 21.054001 24.059999
1642 0 1 0.000000 18.045000 13.452001 26.380999
1643 0 1 0.000000 18.045000 22.637999 26.380999
1644 0 1 0.000000 18.045000 13.452001 33.769001
1645 0 1 0.000000 18.045000 22.637999 33.769001
1646 0 1 0.000000 15.725000 16.622999 24.059999
1647 0 1 0.000000 14.349999 12.030000 31.497000
1648 0 1 0.000000 14.292999 15.743000 26.270000
1649 0 1 0.000000 14.292999 15.743000 33.880001
1650 0 1 0.000000 14.292999 20.347002 26.270000
1651 0 1 0.000000 14.292999 20.347002 33.880001
1652 0 1 0.000000 15.782000 14.240000 27.773001
1653 0 1 0.000000 15.782000 21.849998 27.773001
1654 0 1 0.000000 15.782000 14.240000 32.376999
1655 0 1 0.000000 15.782000 21.849998 32.376999
1656 0 1 0.000000 20.365000 16.622999 24.059999
1657 0 1 0.000000 21.740000 12.030000 31.497000
1658 0 1 0.000000 21.797001 15.743000 26.270000
1659 0 1 0.000000 21.797001 15.743000 33.880001
1660 0 1 0.000000 21.797001 20.347002 26.270000
1661 0 1 0.000000 21.797001 20.347002 33.880001
1662 0 1 0.000000 20.308001 14.240000 27.773001
1663 0 1 0.000000 20.308001 21.849998 27.773001
1664 0 1 0.000000 20.308001 14.240000 32.376999
1665 0 1 0.000000 20.308001 21.849998 32.376999
1666 0 1 0.000000 15.036000 18.045000 30.074999
1667 0 1 0.000000 21.054001 18.045000 30.074999
1668 0 1 0.000000 13.452001 18.045000 32.396000
1669 0 1 0.000000 22.637999 18.045000 32.396000
1670 0 1 0.000000 13.452001 18.045000 27.754000
1671 0 1 0.000000 22.637999 18.045000 27.754000
1672 0 1 0.000000 16.622999 15.725000 30.074999
1673 0 1 0.000000 19.466999 15.725000 30.074999
1674 0 1 0.000000 16.622999 20.365000 30.074999
1675 0 1 0.000000 19.466999 20.365000 30.074999
1676 0 1 0.000000 18.045000 3.006000 36.090000
1677 0 1 0.000000 15.725000 7.437000 36.090000
1678 0 1 0.000000 20.365000 7.437000 36.090000
1679 0 1 0.000000 12.030000 0.000000 39.096001
1680 0 1 0.000000 12.030000 2.321000 37.512001
1681 0 1 0.000000 12.030000 2.321000 46.697998
1682 0 1 0.000000 12.030000 9.709000 37.512001
1683 0 1 0.000000 12.030000 9.709000 46.697998
1684 0 1 0.000000 18.045000 9.024000 36.090000
1685 0 1 0.000000 18.045000 1.422000 38.410999
1686 0 1 0.000000 18.045000 10.608000 38.410999
1687 0 1 0.000000 18.045000 1.422000 45.798996
1688 0 1 0.000000 18.045000 10.608000 45.798996
1689 0 1 0.000000 15.725000 4.593000 36.090000
1690 0 1 0.000000 14.349999 0.000000 43.526997
1691 0 1 0.000000 14.292999 3.713000 38.299999
1692 0 1 0.000000 14.292999 3.713000 45.910000
1693 0 1 0.000000 14.292999 8.317000 38.299999
1694 0 1 0.000000 14.292999 8.317000 45.910000
1695 0 1 0.000000 15.782000 2.210000 39.803001
1696 0 1 0.000000 15.782000 9.820000 39.803001
1697 0 1 0.000000 15.782000 2.210000 44.407001
1698 0 1 0.000000 15.782000 9.820000 44.407001
1699 0 1 0.000000 20.365000 4.593000 36.090000
1700 0 1 0.000000 21.740000 0.000000 43.526997
1701 0 1 0.000000 21.797001 3.713000 38.299999
1702 0 1 0.000000 21.797001 3.713000 45.910000
1703 0 1 0.000000 21.797001 8.317000 38.299999
1704 0 1 0.000000 21.797001 8.317000 45.910000
1705 0 1 0.000000 20.308001 2.210000 39.803001
1706 0 1 0.000000 20.308001 9.820000 39.803001
1707 0 1 0.000000 20.308001 2.210000 44.407001
1708 0 1 0.000000 20.308001 9.820000 44.407001
1709 0 1 0.000000 15.036000 6.015000 42.104996
1710 0 1 0.000000 21.054001 6.015000 42.104996
1711 0 1 0.000000 13.452001 6.015000 44.426003
1712 0 1 0.000000 22.637999 6.015000 44.426003
1713 0 1 0.000000 13.452001 6.015000 39.784000
1714 0 1 0.000000 22.637999 6.015000 39.784000
1715 0 1 0.000000 16.622999 3.695000 42.104996
1716 0 1 0.000000 19.466999 3.695000 42.104996
1717 0 1 0.000000 16.622999 8.335000 42.104996
1718 0 1 0.000000 19.466999 8.335000 42.104996
1719 0 1 0.000000 0.000000 24.059999 33.084000
1720 0 1 0.000000 2.320000 24.059999 28.653000
1721 0 1 0.000000 9.710000 24.059999 28.653000
1722 0 1 0.000000 6.015000 15.036000 36.090000
1723 0 1 0.000000 3.695000 19.466999 36.090000
1724 0 1 0.000000 8.335000 19.466999 36.090000
1725 0 1 0.000000 0.000000 12.030000 45.114002
1726 0 1 0.000000 2.320000 12.030000 40.682999
1727 0 1 0.000000 9.710000 12.030000 40.682999
1728 0 1 0.000000 0.000000 21.738998 37.512001
1729 0 1 0.000000 0.000000 21.738998 46.697998
1730 0 1 0.000000 6.015000 21.054001 36.090000
1731 0 1 0.000000 6.015000 13.452001 38.410999
1732 0 1 0.000000 6.015000 22.637999 38.410999
1733 0 1 0.000000 6.015000 13.452001 45.798996
1734 0 1 0.000000 6.015000 22.637999 45.798996
1735 0 1 0.000000 3.695000 16.622999 36.090000
1736 0 1 0.000000 2.320000 12.030000 43.526997
1737 0 1 0.000000 2.263000 15.743000 38.299999
1738 0 1 0.000000 2.263000 15.743000 45.910000
1739 0 1 0.000000 2.263000 20.347002 38.299999
1740 0 1 0.000000 2.263000 20.347002 45.910000
1741 0 1 0.000000 3.752000 14.240000 39.803001
1742 0 1 0.000000 3.752000 21.849998 39.803001
1743 0 1 0.000000 3.752000 14.240000 44.407001
1744 0 1 0.000000 3.752000 21.849998 44.407001
1745 0 1 0.000000 8.335000 16.622999 36.090000
1746 0 1 0.000000 9.710000 12.030000 43.526997
1747 0 1 0.000000 9.767000 15.743000 38.299999
1748 0 1 0.000000 9.767000 15.743000 45.910000
1749 0 1 0.000000 9.767000 20.347002 38.299999
1750 0 1 0.000000 9.767000 20.347002 45.910000
1751 0 1 0.000000 8.278000 14.240000 39.803001
1752 0 1 0.000000 8.278000 21.849998 39.803001
1753 0 1 0.000000 8.278000 14.240000 44.407001
1754 0 1 0.000000 8.278000 21.849998 44.407001
1755 0 1 0.000000 3.006000 18.045000 42.104996
1756 0 1 0.000000 9.024000 18.045000 42.104996
1757 0 1 0.000000 1.422000 18.045000 44.426003
1758 0 1 0.000000 10.608000 18.045000 44.426003
1759 0 1 0.000000 1.422000 18.045000 39.784000
1760 0 1 0.000000 10.608000 18.045000 39.784000
1761 0 1 0.000000 4.593000 15.725000 42.104996
1762 0 1 0.000000 7.437000 15.725000 42.104996
1763 0 1 0.000000 4.593000 20.365000 42.104996
1764 0 1 0.000000 7.437000 20.365000 42.104996
1765 0 1 0.000000 24.059999 12.030000 27.066000
1766 0 1 0.000000 24.059999 14.351000 25.481998
1767 0 1 0.000000 24.059999 14.351000 34.667999
1768 0 1 0.000000 12.030000 24.059999 33.084000
1769 0 1 0.000000 14.349999 24.059999 28.653000
1770 0 1 0.000000 21.740000 24.059999 28.653000
1771 0 1 0.000000 18.045000 15.036000 36.090000
1772 0 1 0.000000 15.725000 19.466999 36.090000
1773 0 1 0.000000 20.365000 19.466999 36.090000
1774 0 1 0.000000 12.030000 12.030000 45.114002
1775 0 1 0.000000 14.349999 12.030000 40.682999
1776 0 1 0.000000 21.740000 12.030000 40.682999
1777 0 1 0.000000 12.030000 12.030000 39.096001
1778 0 1 0.000000 12.030000 14.351000 37.512001
1779 0 1 0.000000 12.030000 14.351000 46.697998
1780 0 1 0.000000 12.030000 21.738998 37.512001
1781 0 1 0.000000 12.030000 21.738998 46.697998
1782 0 1 0.000000 18.045000 21.054001 36.090000
1783 0 1 0.000000 18.045000 13.452001 38.410999
1784 0 1 0.000000 18.045000 22.637999 38.410999
1785 0 1 0.000000 18.045000 13.452001 45.798996
1786 0 1 0.000000 18.045000 22.637999 45.798996
1787 0 1 0.000000 15.725000 16.622999 36.090000
1788 0 1 0.000000 14.349999 12.030000 43.526997
1789 0 1 0.000000 14.292999 15.743000 38.299999
1790 0 1 0.000000 14.292999 15.743000 45.910000
1791 0 1 0.000000 14.292999 20.347002 38.299999
1792 0 1 0.000000 14.292999 20.347002 45.910000
1793 0 1 0.000000 15.782000 14.240000 39.803001
1794 0 1 0.000000 15.782000 21.849998 39.803001
1795 0 1 0.000000 15.782000 14.240000 44.407001
1796 0 1 0.000000 15.782000 21.849998 44.407001
1797 0 1 0.000000 20.365000 16.622999 36.090000
1798 0 1 0.000000 21.740000 12.030000 43.526997
1799 0 1 0.000000 21.797001 15.743000 38.299999
1800 0 1 0.000000 21.797001 15.743000 45.910000
1801 0 1 0.000000 21.797001 20.347002 38.299999
1802 0 1 0.000000 21.797001 20.347002 45.910000
1803 0 1 0.000000 20.308001 14.240000 39.803001
1804 0 1 0.000000 20.308001 21.849998 39.803001
1805 0 1 0.000000 20.308001 14.240000 44.407001
1806 0 1 0.000000 20.308001 21.849998 44.407001
1807 0 1 0.000000 15.036000 18.045000 42.104996
1808 0 1 0.000000 21.054001 18.045000 42.104996
1809 0 1 0.000000 13.452001 18.045000 44.426003
1810 0 1 0.000000 22.637999 18.045000 44.426003
1811 0 1 0.000000 13.452001 18.045000 39.784000
1812 0 1 0.000000 22.637999 18.045000 39.784000
1813 0 1 0.000000 16.622999 15.725000 42.104996
1814 0 1 0.000000 19.466999 15.725000 42.104996
1815 0 1 0.000000 16.622999 20.365000 42.104996
1816 0 1 0.000000 19.466999 20.365000 42.104996
1817 0 1 0.000000 6.015000 3.006000 48.119999
1818 0 1 0.000000 3.695000 7.437000 48.119999
1819 0 1 0.000000 8.335000 7.437000 48.119999
1820 0 1 0.000000 24.059999 0.000000 39.096001
1821 0 1 0.000000 24.059999 2.321000 37.512001
1822 0 1 0.000000 24.059999 2.321000 46.697998
1823 0 1 0.000000 18.045000 3.006000 48.119999
1824 0 1 0.000000 15.725000 7.437000 48.119999
1825 0 1 0.000000 20.365000 7.437000 48.119999
1826 0 1 0.000000 0.000000 24.059999 45.114002
1827 0 1 0.000000 2.320000 24.059999 40.682999
1828 0 1 0.000000 9.710000 24.059999 40.682999
1829 0 1 0.000000 6.015000 15.036000 48.119999
1830 0 1 0.000000 3.695000 19.466999 48.119999
1831 0 1 0.000000 8.335000 19.466999 48.119999
1832 0 1 0.000000 24.059999 12.030000 39.096001
1833 0 1 0.000000 24.059999 14.351000 37.512001
1834 0 1 0.000000 24.059999 14.351000 46.697998
1835 0 1 0.000000 12.030000 24.059999 45.114002
1836 0 1 0.000000 14.349999 24.059999 40.682999
1837 0 1 0.000000 21.740000 24.059999 40.682999
1838 0 1 0.000000 18.045000 15.036000 48.119999
1839 0 1 0.000000 15.725000 19.466999 48.119999
1840 0 1 0.000000 20.365000 19.466999 48.119999
1841 0 1 0.000000 36.090000 0.000000 27.066000
1842 0 1 0.000000 36.090000 2.321000 25.481998
1843 0 1 0.000000 36.090000 2.321000 34.667999
1844 0 1 0.000000 36.090000 9.709000 25.481998
1845 0 1 0.000000 36.090000 9.709000 34.667999
1846 0 1 0.000000 42.104996 9.024000 24.059999
1847 0 1 0.000000 42.104996 1.422000 26.380999
1848 0 1 0.000000 42.104996 10.608000 26.380999
1849 0 1 0.000000 42.104996 1.422000 33.769001
1850 0 1 0.000000 42.104996 10.608000 33.769001
1851 0 1 0.000000 39.785000 4.593000 24.059999
1852 0 1 0.000000 38.410000 0.000000 31.497000
1853 0 1 0.000000 38.353001 3.713000 26.270000
1854 0 1 0.000000 38.353001 3.713000 33.880001
1855 0 1 0.000000 38.353001 8.317000 26.270000
1856 0 1 0.000000 38.353001 8.317000 33.880001
1857 0 1 0.000000 39.841999 2.210000 27.773001
1858 0 1 0.000000 39.841999 9.820000 27.773001
1859 0 1 0.000000 39.841999 2.210000 32.376999
1860 0 1 0.000000 39.841999 9.820000 32.376999
1861 0 1 0.000000 44.425003 4.593000 24.059999
1862 0 1 0.000000 45.799999 0.000000 31.497000
1863 0 1 0.000000 45.857002 3.713000 26.270000
1864 0 1 0.000000 45.857002 3.713000 33.880001
1865 0 1 0.000000 45.857002 8.317000 26.270000
1866 0 1 0.000000 45.857002 8.317000 33.880001
1867 0 1 0.000000 44.368000 2.210000 27.773001
1868 0 1 0.000000 44.368000 9.820000 27.773001
1869 0 1 0.000000 44.368000 2.210000 32.376999
1870 0 1 0.000000 44.368000 9.820000 32.376999
1871 0 1 0.000000 39.096001 6.015000 30.074999
1872 0 1 0.000000 45.114002 6.015000 30.074999
1873 0 1 0.000000 37.512001 6.015000 32.396000
1874 0 1 0.000000 46.697998 6.015000 32.396000
1875 0 1 0.000000 37.512001 6.015000 27.754000
1876 0 1 0.000000 46.697998 6.015000 27.754000
1877 0 1 0.000000 40.682999 3.695000 30.074999
1878 0 1 0.000000 43.526997 3.695000 30.074999
1879 0 1 0.000000 40.682999 8.335000 30.074999
1880 0 1 0.000000 43.526997 8.335000 30.074999
1881 0 1 0.000000 24.059999 12.030000 33.084000
1882 0 1 0.000000 26.380001 12.030000 28.653000
1883 0 1 0.000000 33.770000 12.030000 28.653000
1884 0 1 0.000000 24.059999 21.738998 25.481998
1885 0 1 0.000000 24.059999 21.738998 34.667999
1886 0 1 0.000000 30.074999 21.054001 24.059999
1887 0 1 0.000000 30.074999 13.452001 26.380999
1888 0 1 0.000000 30.074999 22.637999 26.380999
1889 0 1 0.000000 30.074999 13.452001 33.769001
1890 0 1 0.000000 30.074999 22.637999 33.769001
1891 0 1 0.000000 27.755001 16.622999 24.059999
1892 0 1 0.000000 26.380001 12.030000 31.497000
1893 0 1 0.000000 26.322998 15.743000 26.270000
1894 0 1 0.000000 26.322998 15.743000 33.880001
1895 0 1 0.000000 26.322998 20.347002 26.270000
1896 0 1 0.000000 26.322998 20.347002 33.880001
1897 0 1 0.000000 27.812000 14.240000 27.773001
1898 0 1 0.000000 27.812000 21.849998 27.773001
1899 0 1 0.000000 27.812000 14.240000 32.376999
1900 0 1 0.000000 27.812000 21.849998 32.376999
1901 0 1 0.000000 32.395000 16.622999 24.059999
1902 0 1 0.000000 33.770000 12.030000 31.497000
1903 0 1 0.000000 33.827000 15.743000 26.270000
1904 0 1 0.000000 33.827000 15.743000 33.880001
1905 0 1 0.000000 33.827000 20.347002 26.270000
1906 0 1 0.000000 33.827000 20.347002 33.880001
1907 0 1 0.000000 32.337997 14.240000 27.773001
1908 0 1 0.000000 32.337997 21.849998 27.773001
1909 0 1 0.000000 32.337997 14.240000 32.376999
1910 0 1 0.000000 32.337997 21.849998 32.376999
1911 0 1 0.000000 27.066000 18.045000 30.074999
1912 0 1 0.000000 33.084000 18.045000 30.074999
1913 0 1 0.000000 25.481998 18.045000 32.396000
1914 0 1 0.000000 34.667999 18.045000 32.396000
1915 0 1 0.000000 25.481998 18.045000 27.754000
1916 0 1 0.000000 34.667999 18.045000 27.754000
1917 0 1 0.000000 28.653000 15.725000 30.074999
1918 0 1 0.000000 31.497000 15.725000 30.074999
1919 0 1 0.000000 28.653000 20.365000 30.074999
1920 0 1 0.000000 31.497000 20.365000 30.074999
1921 0 1 0.000000 24.059999 9.709000 25.481998
1922 0 1 0.000000 24.059999 9.709000 34.667999
1923 0 1 0.000000 30.074999 9.024000 24.059999
1924 0 1 0.000000 30.074999 1.422000 26.380999
1925 0 1 0.000000 30.074999 10.608000 26.380999
1926 0 1 0.000000 30.074999 1.422000 33.769001
1927 0 1 0.000000 30.074999 10.608000 33.769001
1928 0 1 0.000000 27.755001 4.593000 24.059999
1929 0 1 0.000000 26.380001 0.000000 31.497000
1930 0 1 0.000000 26.322998 3.713000 26.270000
1931 0 1 0.000000 26.322998 3.713000 33.880001
1932 0 1 0.000000 26.322998 8.317000 26.270000
1933 0 1 0.000000 26.322998 8.317000 33.880001
1934 0 1 0.000000 27.812000 2.210000 27.773001
1935 0 1 0.000000 27.812000 9.820000 27.773001
1936 0 1 0.000000 27.812000 2.210000 32.376999
1937 0 1 0.000000 27.812000 9.820000 32.376999
1938 0 1 0.000000 32.395000 4.593000 24.059999
1939 0 1 0.000000 33.770000 0.000000 31.497000
1940 0 1 0.000000 33.827000 3.713000 26.270000
1941 0 1 0.000000 33.827000 3.713000 33.880001
1942 0 1 0.000000 33.827000 8.317000 26.270000
1943 0 1 0.000000 33.827000 8.317000 33.880001
1944 0 1 0.000000 32.337997 2.210000 27.773001
1945 0 1 0.000000 32.337997 9.820000 27.773001
1946 0 1 0.000000 32.337997 2.210000 32.376999
1947 0 1 0.000000 32.337997 9.820000 32.376999
1948 0 1 0.000000 27.066000 6.015000 30.074999
1949 0 1 0.000000 33.084000 6.015000 30.074999
1950 0 1 0.000000 25.481998 6.015000 32.396000
1951 0 1 0.000000 34.667999 6.015000 32.396000
1952 0 1 0.000000 25.481998 6.015000 27.754000
1953 0 1 0.000000 34.667999 6.015000 27.754000
1954 0 1 0.000000 28.653000 3.695000 30.074999
1955 0 1 0.000000 31.497000 3.695000 30.074999
1956 0 1 0.000000 28.653000 8.335000 30.074999
1957 0 1 0.000000 31.497000 8.335000 30.074999
1958 0 1 0.000000 30.074999 3.006000 36.090000
1959 0 1 0.000000 27.755001 7.437000 36.090000
1960 0 1 0.000000 32.395000 7.437000 36.090000
1961 0 1 0.000000 24.059999 9.709000 37.512001
1962 0 1 0.000000 24.059999 9.709000 46.697998
1963 0 1 0.000000 30.074999 9.024000 36.090000
1964 0 1 0.000000 30.074999 1.422000 38.410999
1965 0 1 0.000000 30.074999 10.608000 38.410999
1966 0 1 0.000000 30.074999 1.422000 45.798996
1967 0 1 0.000000 30.074999 10.608000 45.798996
1968 0 1 0.000000 27.755001 4.593000 36.090000
1969 0 1 0.000000 26.380001 0.000000 43.526997
1970 0 1 0.000000 26.322998 3.713000 38.299999
1971 0 1 0.000000 26.322998 3.713000 45.910000
1972 0 1 0.000000 26.322998 8.317000 38.299999
1973 0 1 0.000000 26.322998 8.317000 45.910000
1974 0 1 0.000000 27.812000 2.210000 39.803001
1975 0 1 0.000000 27.812000 9.820000 39.803001
1976 0 1 0.000000 27.812000 2.210000 44.407001
1977 0 1 0.000000 27.812000 9.820000 44.407001
1978 0 1 0.000000 32.395000 4.593000 36.090000
1979 0 1 0.000000 33.770000 0.000000 43.526997
1980 0 1 0.000000 33.827000 3.713000 38.299999
1981 0 1 0.000000 33.827000 3.713000 45.910000
1982 0 1 0.000000 33.827000 8.317000 38.299999
1983 0 1 0.000000 33.827000 8.317000 45.910000
1984 0 1 0.000000 32.337997 2.210000 39.803001
1985 0 1 0.000000 32.337997 9.820000 39.803001
1986 0 1 0.000000 32.337997 2.210000 44.407001
1987 0 1 0.000000 32.337997 9.820000 44.407001
1988 0 1 0.000000 27.066000 6.015000 42.104996
1989 0 1 0.000000 33.084000 6.015000 42.104996
1990 0 1 0.000000 25.481998 6.015000 44.426003
1991 0 1 0.000000 34.667999 6.015000 44.426003
1992 0 1 0.000000 25.481998 6.015000 39.784000
1993 0 1 0.000000 34.667999 6.015000 39.784000
1994 0 1 0.000000 28.653000 3.695000 42.104996
1995 0 1 0.000000 31.497000 3.695000 42.104996
1996 0 1 0.000000 28.653000 8.335000 42.104996
1997 0 1 0.000000 31.497000 8.335000 42.104996
1998 0 1 0.000000 48.119999 0.000000 27.066000
1999 0 1 0.000000 48.119999 2.321000 25.481998
2000 0 1 0.000000 48.119999 2.321000 34.667999
2001 0 1 0.000000 36.090000 12.030000 33.084000
2002 0 1 0.000000 38.410000 12.030000 28.653000
2003 0 1 0.000000 45.799999 12.030000 28.653000
2004 0 1 0.000000 36.090000 12.030000 27.066000
2005 0 1 0.000000 36.090000 14.351000 25.481998
2006 0 1 0.000000 36.090000 14.351000 34.667999
2007 0 1 0.000000 36.090000 21.738998 25.481998
2008 0 1 0.000000 36.090000 21.738998 34.667999
2009 0 1 0.000000 42.104996 21.054001 24.059999
2010 0 1 0.000000 42.104996 13.452001 26.380999
2011 0 1 0.000000 42.104996 22.637999 26.380999
2012 0 1 0.000000 42.104996 13.452001 33.769001
2013 0 1 0.000000 42.104996 22.637999 33.769001
2014 0 1 0.000000 39.785000 16.622999 24.059999
2015 0 1 0.000000 38.410000 12.030000 31.497000
2016 0 1 0.000000 38.353001 15.743000 26.270000
2017 0 1 0.000000 38.353001 15.743000 33.880001
2018 0 1 0.000000 38.353001 20.347002 26.270000
2019 0 1 0.000000 38.353001 20.347002 33.880001
2020 0 1 0.000000 39.841999 14.240000 27.773001
2021 0 1 0.000000 39.841999 21.849998 27.773001
2022 0 1 0.000000 39.841999 14.240000 32.376999
2023 0 1 0.000000 39.841999 21.849998 32.376999
2024 0 1 0.000000 44.425003 16.622999 24.059999
2025 0 1 0.000000 45.799999 12.030000 31.497000
2026 0 1 0.000000 45.857002 15.743000 26.270000
2027 0 1 0.000000 45.857002 15.743000 33.880001
2028 0 1 0.000000 45.857002 20.347002 26.270000
2029 0 1 0.000000 45.857002 20.347002 33.880001
2030 0 1 0.000000 44.368000 14.240000 27.773001
2031 0 1 0.000000 44.368000 21.849998 27.773001
2032 0 1 0.000000 44.368000 14.240000 32.376999
2033 0 1 0.000000 44.368000 21.849998 32.376999
2034 0 1 0.000000 39.096001 18.045000 30.074999
2035 0 1 0.000000 45.114002 18.045000 30.074999
2036 0 1 0.000000 37.512001 18.045000 32.396000
2037 0 1 0.000000 46.697998 18.045000 32.396000
2038 0 1 0.000000 37.512001 18.045000 27.754000
2039 0 1 0.000000 46.697998 18.045000 27.754000
2040 0 1 0.000000 40.682999 15.725000 30.074999
2041 0 1 0.000000 43.526997 15.725000 30.074999
2042 0 1 0.000000 40.682999 20.365000 30.074999
2043 0 1 0.000000 43.526997 20.365000 30.074999
2044 0 1 0.000000 42.104996 3.006000 36.090000
2045 0 1 0.000000 39.785000 7.437000 36.090000
2046 0 1 0.000000 44.425003 7.437000 36.090000
2047 0 1 0.000000 36.090000 0.000000 39.096001
2048 0 1 0.000000 36.090000 2.321000 37.512001
2049 0 1 0.000000 36.090000 2.321000 46.697998
2050 0 1 0.000000 36.090000 9.709000 37.512001
2051 0 1 0.000000 36.090000 9.709000 46.697998
2052 0 1 0.000000 42.104996 9.024000 36.090000
2053 0 1 0.000000 42.104996 1.422000 38.410999
2054 0 1 0.000000 42.104996 10.608000 38.410999
2055 0 1 0.000000 42.104996 1.422000 45.798996
2056 0 1 0.000000 42.104996 10.608000 45.798996
2057 0 1 0.000000 39.785000 4.593000 36.090000
2058 0 1 0.000000 38.410000 0.000000 43.526997
2059 0 1 0.000000 38.353001 3.713000 38.299999
2060 0 1 0.000000 38.353001 3.713000 45.910000
2061 0 1 0.000000 38.353001 8.317000 38.299999
2062 0 1 0.000000 38.353001 8.317000 45.910000
2063 0 1 0.000000 39.841999 2.210000 39.803001
2064 0 1 0.000000 39.841999 9.820000 39.803001
2065 0 1 0.000000 39.841999 2.210000 44.407001
2066 0 1 0.000000 39.841999 9.820000 44.407001
2067 0 1 0.000000 44.425003 4.593000 36.090000
2068 0 1 0.000000 45.799999 0.000000 43.526997
2069 0 1 0.000000 45.857002 3.713000 38.299999
2070 0 1 0.000000 45.857002 3.713000 45.910000
2071 0 1 0.000000 45.857002 8.317000 38.299999
2072 0 1 0.000000 45.857002 8.317000 45.910000
2073 0 1 0.000000 44.368000 2.210000 39.803001
2074 0 1 0.000000 44.368000 9.820000 39.803001
2075 0 1 0.000000 44.368000 2.210000 44.407001
2076 0 1 0.000000 44.368000 9.820000 44.407001
2077 0 1 0.000000 39.096001 6.015000 42.104996
2078 0 1 0.000000 45.114002 6.015000 42.104996
2079 0 1 0.000000 37.512001 6.015000 44.426003
2080 0 1 0.000000 46.697998 6.015000 44.426003
2081 0 1 0.000000 37.512001 6.015000 39.784000
2082 0 1 0.000000 46.697998 6.015000 39.784000
2083 0 1 0.000000 40.682999 3.695000 42.104996
2084 0 1 0.000000 43.526997 3.695000 42.104996
2085 0 1 0.000000 40.682999 8.335000 42.104996
2086 0 1 0.000000 43.526997 8.335000 42.104996
2087 0 1 0.000000 24.059999 24.059999 33.084000
2088 0 1 0.000000 26.380001 24.059999 28.653000
2089 0 1 0.000000 33.770000 24.059999 28.653000
2090 0 1 0.000000 30.074999 15.036000 36.090000
2091 0 1 0.000000 27.755001 19.466999 36.090000
2092 0 1 0.000000 32.395000 19.466999 36.090000
2093 0 1 0.000000 24.059999 12.030000 45.114002
2094 0 1 0.000000 26.380001 12.030000 40.682999
2095 0 1 0.000000 33.770000 12.030000 40.682999
2096 0 1 0.000000 24.059999 21.738998 37.512001
2097 0 1 0.000000 24.059999 21.738998 46.697998
2098 0 1 0.000000 30.074999 21.054001 36.090000
2099 0 1 0.000000 30.074999 13.452001 38.410999
2100 0 1 0.000000 30.074999 22.637999 38.410999
2101 0 1 0.000000 30.074999 13.452001 45.798996
2102 0 1 0.000000 30.074999 22.637999 45.798996
2103 0 1 0.000000 27.755001 16.622999 36.090000
2104 0 1 0.000000 26.380001 12.030000 43.526997
2105 0 1 0.000000 26.322998 15.743000 38.299999
2106 0 1 0.000000 26.322998 15.743000 45.910000
2107 0 1 0.000000 26.322998 20.347002 38.299999
2108 0 1 0.000000 26.322998 20.347002 45.910000
2109 0 1 0.000000 27.812000 14.240000 39.803001
2110 0 1 0.000000 27.812000 21.849998 39.803001
2111 0 1 0.000000 27.812000 14.240000 44.407001
2112 0 1 0.000000 27.812000 21.849998 44.407001
2113 0 1 0.000000 32.395000 16.622999 36.090000
2114 0 1 0.000000 33.770000 12.030000 43.526997
2115 0 1 0.000000 33.827000 15.743000 38.299999
2116 0 1 0.000000 33.827000 15.743000 45.910000
2117 0 1 0.000000 33.827000 20.347002 38.299999
2118 0 1 0.000000 33.827000 20.347002 45.910000
2119 0 1 0.000000 32.337997 14.240000 39.803001
2120 0 1 0.000000 32.337997 21.849998 39.803001
2121 0 1 0.000000 32.337997 14.240000 44.407001
2122 0 1 0.000000 32.337997 21.849998 44.407001
2123 0 1 0.000000 27.066000 18.045000 42.104996
2124 0 1 0.000000 33.084000 18.045000 42.104996
2125 0 1 0.000000 25.481998 18.045000 44.426003
2126 0 1 0.000000 34.667999 18.045000 44.426003
2127 0 1 0.000000 25.481998 18.045000 39.784000
2128 0 1 0.000000 34.667999 18.045000 39.784000
2129 0 1 0.000000 28.653000 15.725000 42.104996
2130 0 1 0.000000 31.497000 15.725000 42.104996
2131 0 1 0.000000 28.653000 20.365000 42.104996
2132 0 1 0.000000 31.497000 20.365000 42.104996
2133 0 1 0.000000 48.119999 12.030000 27.066000
2134 0 1 0.000000 48.119999 14.351000 25.481998
2135 0 1 0.000000 48.119999 14.351000 34.667999
2136 0 1 0.000000 36.090000 24.059999 33.084000
2137 0 1 0.000000 38.410000 24.059999 28.653000
2138 0 1 0.000000 45.799999 24.059999 28.653000
2139 0 1 0.000000 42.104996 15.036000 36.090000
2140 0 1 0.000000 39.785000 19.466999 36.090000
2141 0 1 0.000000 44.425003 19.466999 36.090000
2142 0 1 0.000000 36.090000 12.030000 45.114002
2143 0 1 0.000000 38.410000 12.030000 40.682999
2144 0 1 0.000000 45.799999 12.030000 40.682999
2145 0 1 0.000000 36.090000 12.030000 39.096001
2146 0 1 0.000000 36.090000 14.351000 37.512001
2147 0 1 0.000000 36.090000 14.351000 46.697998
2148 0 1 0.000000 36.090000 21.738998 37.512001
2149 0 1 0.000000 36.090000 21.738998 46.697998
2150 0 1 0.000000 42.104996 21.054001 36.090000
2151 0 1 0.000000 42.104996 13.452001 38.410999
2152 0 1 0.000000 42.104996 22.637999 38.410999
2153 0 1 0.000000 42.104996 13.452001 45.798996
2154 0 1 0.000000 42.104996 22.637999 45.798996
2155 0 1 0.000000 39.785000 16.622999 36.090000
2156 0 1 0.000000 38.410000 12.030000 43.526997
2157 0 1 0.000000 38.353001 15.743000 38.299999
2158 0 1 0.000000 38.353001 15.743000 45.910000
2159 0 1 0.000000 38.353001 20.347002 38.299999
2160 0 1 0.000000 38.353001 20.347002 45.910000
2161 0 1 0.000000 39.841999 14.240000 39.803001
2162 0 1 0.000000 39.841999 21.849998 39.803001
2163 0 1 0.000000 39.841999 14.240000 44.407001
2164 0 1 0.000000 39.841999 21.849998 44.407001
2165 0 1 0.000000 44.425003 16.622999 36.090000
2166 0 1 0.000000 45.799999 12.030000 43.526997
2167 0 1 0.000000 45.857002 15.743000 38.299999
2168 0 1 0.000000 45.857002 15.743000 45.910000
2169 0 1 0.000000 45.857002 20.347002 38.299999
2170 0 1 0.000000 45.857002 20.347002 45.910000
2171 0 1 0.000000 44.368000 14.240000 39.803001
2172 0 1 0.000000 44.368000 21.849998 39.803001
2173 0 1 0.000000 44.368000 14.240000 44.407001
2174 0 1 0.000000 44.368000 21.849998 44.407001
2175 0 1 0.000000 39.096001 18.045000 42.104996
2176 0 1 0.000000 45.114002 18.045000 42.104996
2177 0 1 0.000000 37.512001 18.045000 44.426003
2178 0 1 0.000000 46.697998 18.045000 44.426003
2179 0 1 0.000000 37.512001 18.045000 39.784000
2180 0 1 0.000000 46.697998 18.045000 39.784000
2181 0 1 0.000000 40.682999 15.725000 42.104996
2182 0 1 0.000000 43.526997 15.725000 42.104996
2183 0 1 0.000000 40.682999 20.365000 42.104996
2184 0 1 0.000000 43.526997 20.365000 42.104996
2185 0 1 0.000000 30.074999 3.006000 48.119999
2186 0 1 0.000000 27.755001 7.437000 48.119999
2187 0 1 0.000000 32.395000 7.437000 48.119999
2188 0 1 0.000000 48.119999 0.000000 39.096001
2189 0 1 0.000000 48.119999 2.321000 37.512001
2190 0 1 0.000000 48.119999 2.321000 46.697998
2191 0 1 0.000000 42.104996 3.006000 48.119999
2192 0 1 0.000000 39.785000 7.437000 48.119999
2193 0 1 0.000000 44.425003 7.437000 48.119999
2194 0 1 0.000000 24.059999 24.059999 45.114002
2195 0 1 0.000000 26.380001 24.059999 40.682999
2196 0 1 0.000000 33.770000 24.059999 40.682999
2197 0 1 0.000000 30.074999 15.036000 48.119999
2198 0 1 0.000000 27.755001 19.466999 48.119999
2199 0 1 0.000000 32.395000 19.466999 48.119999
2200 0 1 0.000000 48.119999 12.030000 39.096001
2201 0 1 0.000000 48.119999 14.351000 37.512001
2202 0 1 0.000000 48.119999 14.351000 46.697998
2203 0 1 0.000000 36.090000 24.059999 45.114002
2204 0 1 0.000000 38.410000 24.059999 40.682999
2205 0 1 0.000000 45.799999 24.059999 40.682999
2206 0 1 0.000000 42.104996 15.036000 48.119999
2207 0 1 0.000000 39.785000 19.466999 48.119999
2208 0 1 0.000000 44.425003 19.466999 48.119999
2209 0 1 0.000000 12.030000 24.059999 27.066000
2210 0 1 0.000000 12.030000 26.380999 25.481998
2211 0 1 0.000000 12.030000 26.380999 34.667999
2212 0 1 0.000000 12.030000 33.769001 25.481998
2213 0 1 0.000000 12.030000 33.769001 34.667999
2214 0 1 0.000000 18.045000 33.084000 24.059999
2215 0 1 0.000000 18.045000 25.481998 26.380999
2216 0 1 0.000000 18.045000 34.667999 26.380999
2217 0 1 0.000000 18.045000 25.481998 33.769001
2218 0 1 0.000000 18.045000 34.667999 33.769001
2219 0 1 0.000000 15.725000 28.653000 24.059999
2220 0 1 0.000000 14.349999 24.059999 31.497000
2221 0 1 0.000000 14.292999 27.773001 26.270000
2222 0 1 0.000000 14.292999 27.773001 33.880001
2223 0 1 0.000000 14.292999 32.376999 26.270000
2224 0 1 0.000000 14.292999 32.376999 33.880001
2225 0 1 0.000000 15.782000 26.270000 27.773001
2226 0 1 0.000000 15.782000 33.880001 27.773001
2227 0 1 0.000000 15.782000 26.270000 32.376999
2228 0 1 0.000000 15.782000 33.880001 32.376999
2229 0 1 0.000000 20.365000 28.653000 24.059999
2230 0 1 0.000000 21.740000 24.059999 31.497000
2231 0 1 0.000000 21.797001 27.773001 26.270000
2232 0 1 0.000000 21.797001 27.773001 33.880001
2233 0 1 0.000000 21.797001 32.376999 26.270000
2234 0 1 0.000000 21.797001 32.376999 33.880001
2235 0 1 0.000000 20.308001 26.270000 27.773001
2236 0 1 0.000000 20.308001 33.880001 27.773001
2237 0 1 0.000000 20.308001 26.270000 32.376999
2238 0 1 0.000000 20.308001 33.880001 32.376999
2239 0 1 0.000000 15.036000 30.074999 30.074999
2240 0 1 0.000000 21.054001 30.074999 30.074999
2241 0 1 0.000000 13.452001 30.074999 32.396000
2242 0 1 0.000000 22.637999 30.074999 32.396000
2243 0 1 0.000000 13.452001 30.074999 27.754000
2244 0 1 0.000000 22.637999 30.074999 27.754000
2245 0 1 0.000000 16.622999 27.755001 30.074999
2246 0 1 0.000000 19.466999 27.755001 30.074999
2247 0 1 0.000000 16.622999 32.395000 30.074999
2248 0 1 0.000000 19.466999 32.395000 30.074999
2249 0 1 0.000000 0.000000 36.090000 33.084000
2250 0 1 0.000000 2.320000 36.090000 28.653000
2251 0 1 0.000000 9.710000 36.090000 28.653000
2252 0 1 0.000000 0.000000 45.798996 25.481998
2253 0 1 0.000000 0.000000 45.798996 34.667999
2254 0 1 0.000000 6.015000 45.114002 24.059999
2255 0 1 0.000000 6.015000 37.512001 26.380999
2256 0 1 0.000000 6.015000 46.697998 26.380999
2257 0 1 0.000000 6.015000 37.512001 33.769001
2258 0 1 0.000000 6.015000 46.697998 33.769001
2259 0 1 0.000000 3.695000 40.682999 24.059999
2260 0 1 0.000000 2.320000 36.090000 31.497000
2261 0 1 0.000000 2.263000 39.803001 26.270000
2262 0 1 0.000000 2.263000 39.803001 33.880001
2263 0 1 0.000000 2.263000 44.407001 26.270000
2264 0 1 0.000000 2.263000 44.407001 33.880001
2265 0 1 0.000000 3.752000 38.299999 27.773001
2266 0 1 0.000000 3.752000 45.910000 27.773001
2267 0 1 0.000000 3.752000 38.299999 32.376999
2268 0 1 0.000000 3.752000 45.910000 32.376999
2269 0 1 0.000000 8.335000 40.682999 24.059999
2270 0 1 0.000000 9.710000 36.090000 31.497000
2271 0 1 0.000000 9.767000 39.803001 26.270000
2272 0 1 0.000000 9.767000 39.803001 33.880001
2273 0 1 0.000000 9.767000 44.407001 26.270000
2274 0 1 0.000000 9.767000 44.407001 33.880001
2275 0 1 0.000000 8.278000 38.299999 27.773001
2276 0 1 0.000000 8.278000 45.910000 27.773001
2277 0 1 0.000000 8.278000 38.299999 32.376999
2278 0 1 0.000000 8.278000 45.910000 32.376999
2279 0 1 0.000000 3.006000 42.104996 30.074999
2280 0 1 0.000000 9.024000 42.104996 30.074999
2281 0 1 0.000000 1.422000 42.104996 32.396000
2282 0 1 0.000000 10.608000 42.104996 32.396000
2283 0 1 0.000000 1.422000 42.104996 27.754000
2284 0 1 0.000000 10.608000 42.104996 27.754000
2285 0 1 0.000000 4.593000 39.785000 30.074999
2286 0 1 0.000000 7.437000 39.785000 30.074999
2287 0 1 0.000000 4.593000 44.425003 30.074999
2288 0 1 0.000000 7.437000 44.425003 30.074999
2289 0 1 0.000000 0.000000 33.769001 25.481998
2290 0 1 0.000000 0.000000 33.769001 34.667999
2291 0 1 0.000000 6.015000 33.084000 24.059999
2292 0 1 0.000000 6.015000 25.481998 26.380999
2293 0 1 0.000000 6.015000 34.667999 26.380999
2294 0 1 0.000000 6.015000 25.481998 33.769001
2295 0 1 0.000000 6.015000 34.667999 33.769001
2296 0 1 0.000000 3.695000 28.653000 24.059999
2297 0 1 0.000000 2.320000 24.059999 31.497000
2298 0 1 0.000000 2.263000 27.773001 26.270000
2299 0 1 0.000000 2.263000 27.773001 33.880001
2300 0 1 0.000000 2.263000 32.376999 26.270000
2301 0 1 0.000000 2.263000 32.376999 33.880001
2302 0 1 0.000000 3.752000 26.270000 27.773001
2303 0 1 0.000000 3.752000 33.880001 27.773001
2304 0 1 0.000000 3.752000 26.270000 32.376999
2305 0 1 0.000000 3.752000 33.880001 32.376999
2306 0 1 0.000000 8.335000 28.653000 24.059999
2307 0 1 0.000000 9.710000 24.059999 31.497000
2308 0 1 0.000000 9.767000 27.773001 26.270000
2309 0 1 0.000000 9.767000 27.773001 33.880001
2310 0 1 0.000000 9.767000 32.376999 26.270000
2311 0 1 0.000000 9.767000 32.376999 33.880001
2312 0 1 0.000000 8.278000 26.270000 27.773001
2313 0 1 0.000000 8.278000 33.880001 27.773001
2314 0 1 0.000000 8.278000 26.270000 32.376999
2315 0 1 0.000000 8.278000 33.880001 32.376999
2316 0 1 0.000000 3.006000 30.074999 30.074999
2317 0 1 0.000000 9.024000 30.074999 30.074999
2318 0 1 0.000000 1.422000 30.074999 32.396000
2319 0 1 0.000000 10.608000 30.074999 32.396000
2320 0 1 0.000000 1.422000 30.074999 27.754000
2321 0 1 0.000000 10.608000 30.074999 27.754000
2322 0 1 0.000000 4.593000 27.755001 30.074999
2323 0 1 0.000000 7.437000 27.755001 30.074999
2324 0 1 0.000000 4.593000 32.395000 30.074999
2325 0 1 0.000000 7.437000 32.395000 30.074999
2326 0 1 0.000000 6.015000 27.066000 36.090000
2327 0 1 0.000000 3.695000 31.497000 36.090000
2328 0 1 0.000000 8.335000 31.497000 36.090000
2329 0 1 0.000000 0.000000 33.769001 37.512001
2330 0 1 0.000000 0.000000 33.769001 46.697998
2331 0 1 0.000000 6.015000 33.084000 36.090000
2332 0 1 0.000000 6.015000 25.481998 38.410999
2333 0 1 0.000000 6.015000 34.667999 38.410999
2334 0 1 0.000000 6.015000 25.481998 45.798996
2335 0 1 0.000000 6.015000 34.667999 45.798996
2336 0 1 0.000000 3.695000 28.653000 36.090000
2337 0 1 0.000000 2.320000 24.059999 43.526997
2338 0 1 0.000000 2.263000 27.773001 38.299999
2339 0 1 0.000000 2.263000 27.773001 45.910000
2340 0 1 0.000000 2.263000 32.376999 38.299999
2341 0 1 0.000000 2.263000 32.376999 45.910000
2342 0 1 0.000000 3.752000 26.270000 39.803001
2343 0 1 0.000000 3.752000 33.880001 39.803001
2344 0 1 0.000000 3.752000 26.270000 44.407001
2345 0 1 0.000000 3.752000 33.880001 44.407001
2346 0 1 0.000000 8.335000 28.653000 36.090000
2347 0 1 0.000000 9.710000 24.059999 43.526997
2348 0 1 0.000000 9.767000 27.773001 38.299999
2349 0 1 0.000000 9.767000 27.773001 45.910000
2350 0 1 0.000000 9.767000 32.376999 38.299999
2351 0 1 0.000000 9.767000 32.376999 45.910000
2352 0 1 0.000000 8.278000 26.270000 39.803001
2353 0 1 0.000000 8.278000 33.880001 39.803001
2354 0 1 0.000000 8.278000 26.270000 44.407001
2355 0 1 0.000000 8.278000 33.880001 44.407001
2356 0 1 0.000000 3.006000 30.074999 42.104996
2357 0 1 0.000000 9.024000 30.074999 42.104996
2358 0 1 0.000000 1.422000 30.074999 44.426003
2359 0 1 0.000000 10.608000 30.074999 44.426003
2360 0 1 0.000000 1.422000 30.074999 39.784000
2361 0 1 0.000000 10.608000 30.074999 39.784000
2362 0 1 0.000000 4.593000 27.755001 42.104996
2363 0 1 0.000000 7.437000 27.755001 42.104996
2364 0 1 0.000000 4.593000 32.395000 42.104996
2365 0 1 0.000000 7.437000 32.395000 42.104996
2366 0 1 0.000000 24.059999 24.059999 27.066000
2367 0 1 0.000000 24.059999 26.380999 25.481998
2368 0 1 0.000000 24.059999 26.380999 34.667999
2369 0 1 0.000000 12.030000 36.090000 33.084000
2370 0 1 0.000000 14.349999 36.090000 28.653000
2371 0 1 0.000000 21.740000 36.090000 28.653000
2372 0 1 0.000000 12.030000 36.090000 27.066000
2373 0 1 0.000000 12.030000 38.410999 25.481998
2374 0 1 0.000000 12.030000 38.410999 34.667999
2375 0 1 0.000000 12.030000 45.798996 25.481998
2376 0 1 0.000000 12.030000 45.798996 34.667999
2377 0 1 0.000000 18.045000 45.114002 24.059999
2378 0 1 0.000000 18.045000 37.512001 26.380999
2379 0 1 0.000000 18.045000 46.697998 26.380999
2380 0 1 0.000000 18.045000 37.512001 33.769001
2381 0 1 0.000000 18.045000 46.697998 33.769001
2382 0 1 0.000000 15.725000 40.682999 24.059999
2383 0 1 0.000000 14.349999 36.090000 31.497000
2384 0 1 0.000000 14.292999 39.803001 26.270000
2385 0 1 0.000000 14.292999 39.803001 33.880001
2386 0 1 0.000000 14.292999 44.407001 26.270000
2387 0 1 0.000000 14.292999 44.407001 33.880001
2388 0 1 0.000000 15.782000 38.299999 27.773001
2389 0 1 0.000000 15.782000 45.910000 27.773001
2390 0 1 0.000000 15.782000 38.299999 32.376999
2391 0 1 0.000000 15.782000 45.910000 32.376999
2392 0 1 0.000000 20.365000 40.682999 24.059999
2393 0 1 0.000000 21.740000 36.090000 31.497000
2394 0 1 0.000000 21.797001 39.803001 26.270000
2395 0 1 0.000000 21.797001 39.803001 33.880001
2396 0 1 0.000000 21.797001 44.407001 26.270000
2397 0 1 0.000000 21.797001 44.407001 33.880001
2398 0 1 0.000000 20.308001 38.299999 27.773001
2399 0 1 0.000000 20.308001 45.910000 27.773001
2400 0 1 0.000000 20.308001 38.299999 32.376999
2401 0 1 0.000000 20.308001 45.910000 32.376999
2402 0 1 0.000000 15.036000 42.104996 30.074999
2403 0 1 0.000000 21.054001 42.104996 30.074999
2404 0 1 0.000000 13.452001 42.104996 32.396000
2405 0 1 0.000000 22.637999 42.104996 32.396000
2406 0 1 0.000000 13.452001 42.104996 27.754000
2407 0 1 0.000000 22.637999 42.104996 27.754000
2408 0 1 0.000000 16.622999 39.785000 30.074999
2409 0 1 0.000000 19.466999 39.785000 30.074999
2410 0 1 0.000000 16.622999 44.425003 30.074999
2411 0 1 0.000000 19.466999 44.425003 30.074999
2412 0 1 0.000000 18.045000 27.066000 36.090000
2413 0 1 0.000000 15.725000 31.497000 36.090000
2414 0 1 0.000000 20.365000 31.497000 36.090000
2415 0 1 0.000000 12.030000 24.059999 39.096001
2416 0 1 0.000000 12.030000 26.380999 37.512001
2417 0 1 0.000000 12.030000 26.380999 46.697998
2418 0 1 0.000000 12.030000 33.769001 37.512001
2419 0 1 0.000000 12.030000 33.769001 46.697998
2420 0 1 0.000000 18.045000 33.084000 36.090000
2421 0 1 0.000000 18.045000 25.481998 38.410999
2422 0 1 0.000000 18.045000 34.667999 38.410999
2423 0 1 0.000000 18.045000 25.481998 45.798996
2424 0 1 0.000000 18.045000 34.667999 45.798996
2425 0 1 0.000000 15.725000 28.653000 36.090000
2426 0 1 0.000000 14.349999 24.059999 43.526997
2427 0 1 0.000000 14.292999 27.773001 38.299999
2428 0 1 0.000000 14.292999 27.773001 45.910000
2429 0 1 0.000000 14.292999 32.376999 38.299999
2430 0 1 0.000000 14.292999 32.376999 45.910000
2431 0 1 0.000000 15.782000 26.270000 39.803001
2432 0 1 0.000000 15.782000 33.880001 39.803001
2433 0 1 0.000000 15.782000 26.270000 44.407001
2434 0 1 0.000000 15.782000 33.880001 44.407001
2435 0 1 0.000000 20.365000 28.653000 36.090000
2436 0 1 0.000000 21.740000 24.059999 43.526997
2437 0 1 0.000000 21.797001 27.773001 38.299999
2438 0 1 0.000000 21.797001 27.773001 45.910000
2439 0 1 0.000000 21.797001 32.376999 38.299999
2440 0 1 0.000000 21.797001 32.376999 45.910000
2441 0 1 0.000000 20.308001 26.270000 39.803001
2442 0 1 0.000000 20.308001 33.880001 39.803001
2443 0 1 0.000000 20.308001 26.270000 44.407001
2444 0 1 0.000000 20.308001 33.880001 44.407001
2445 0 1 0.000000 15.036000 30.074999 42.104996
2446 0 1 0.000000 21.054001 30.074999 42.104996
2447 0 1 0.000000 13.452001 30.074999 44.426003
2448 0 1 0.000000 22.637999 30.074999 44.426003
2449 0 1 0.000000 13.452001 30.074999 39.784000
2450 0 1 0.000000 22.637999 30.074999 39.784000
2451 0 1 0.000000 16.622999 27.755001 42.104996
2452 0 1 0.000000 19.466999 27.755001 42.104996
2453 0 1 0.000000 16.622999 32.395000 42.104996
2454 0 1 0.000000 19.466999 32.395000 42.104996
2455 0 1 0.000000 0.000000 48.119999 33.084000
2456 0 1 0.000000 2.320000 48.119999 28.653000
2457 0 1 0.000000 9.710000 48.119999 28.653000
2458 0 1 0.000000 6.015000 39.096001 36.090000
2459 0 1 0.000000 3.695000 43.526997 36.090000
2460 0 1 0.000000 8.335000 43.526997 36.090000
2461 0 1 0.000000 0.000000 36.090000 45.114002
2462 0 1 0.000000 2.320000 36.090000 40.682999
2463 0 1 0.000000 9.710000 36.090000 40.682999
2464 0 1 0.000000 0.000000 45.798996 37.512001
2465 0 1 0.000000 0.000000 45.798996 46.697998
2466 0 1 0.000000 6.015000 45.114002 36.090000
2467 0 1 0.000000 6.015000 37.512001 38.410999
2468 0 1 0.000000 6.015000 46.697998 38.410999
2469 0 1 0.000000 6.015000 37.512001 45.798996
2470 0 1 0.000000 6.015000 46.697998 45.798996
2471 0 1 0.000000 3.695000 40.682999 36.090000
2472 0 1 0.000000 2.320000 36.090000 43.526997
2473 0 1 0.000000 2.263000 39.803001 38.299999
2474 0 1 0.000000 2.263000 39.803001 45.910000
2475 0 1 0.000000 2.263000 44.407001 38.299999
2476 0 1 0.000000 2.263000 44.407001 45.910000
2477 0 1 0.000000 3.752000 38.299999 39.803001
2478 0 1 0.000000 3.752000 45.910000 39.803001
2479 0 1 0.000000 3.752000 38.299999 44.407001
2480 0 1 0.000000 3.752000 45.910000 44.407001
2481 0 1 0.000000 8.335000 40.682999 36.090000
2482 0 1 0.000000 9.710000 36.090000 43.526997
2483 0 1 0.000000 9.767000 39.803001 38.299999
2484 0 1 0.000000 9.767000 39.803001 45.910000
2485 0 1 0.000000 9.767000 44.407001 38.299999
2486 0 1 0.000000 9.767000 44.407001 45.910000
2487 0 1 0.000000 8.278000 38.299999 39.803001
2488 0 1 0.000000 8.278000 45.910000 39.803001
2489 0 1 0.000000 8.278000 38.299999 44.407001
2490 0 1 0.000000 8.278000 45.910000 44.407001
2491 0 1 0.000000 3.006000 42.104996 42.104996
2492 0 1 0.000000 9.024000 42.104996 42.104996
2493 0 1 0.000000 1.422000 42.104996 44.426003
2494 0 1 0.000000 10.608000 42.104996 44.426003
2495 0 1 0.000000 1.422000 42.104996 39.784000
2496 0 1 0.000000 10.608000 42.104996 39.784000
2497 0 1 0.000000 4.593000 39.785000 42.104996
2498 0 1 0.000000 7.437000 39.785000 42.104996
2499 0 1 0.000000 4.593000 44.425003 42.104996
2500 0 1 0.000000 7.437000 44.425003 42.104996
2501 0 1 0.000000 24.059999 36.090000 27.066000
2502 0 1 0.000000 24.059999 38.410999 25.481998
2503 0 1 0.000000 24.059999 38.410999 34.667999
2504 0 1 0.000000 12.030000 48.119999 33.084000
2505 0 1 0.000000 14.349999 48.119999 28.653000
2506 0 1 0.000000 21.740000 48.119999 28.653000
2507 0 1 0.000000 18.045000 39.096001 36.090000
2508 0 1 0.000000 15.725000 43.526997 36.090000
2509 0 1 0.000000 20.365000 43.526997 36.090000
2510 0 1 0.000000 12.030000 36.090000 45.114002
2511 0 1 0.000000 14.349999 36.090000 40.682999
2512 0 1 0.000000 21.740000 36.090000 40.682999
2513 0 1 0.000000 12.030000 36.090000 39.096001
2514 0 1 0.000000 12.030000 38.410999 37.512001
2515 0 1 0.000000 12.030000 38.410999 46.697998
2516 0 1 0.000000 12.030000 45.798996 37.512001
2517 0 1 0.000000 12.030000 45.798996 46.697998
2518 0 1 0.000000 18.045000 45.114002 36.090000
2519 0 1 0.000000 18.045000 37.512001 38.410999
2520 0 1 0.000000 18.045000 46.697998 38.410999
2521 0 1 0.000000 18.045000 37.512001 45.798996
2522 0 1 0.000000 18.045000 46.697998 45.798996
2523 0 1 0.000000 15.725000 40.682999 36.090000
2524 0 1 0.000000 14.349999 36.090000 43.526997
2525 0 1 0.000000 14.292999 39.803001 38.299999
2526 0 1 0.000000 14.292999 39.803001 45.910000
2527 0 1 0.000000 14.292999 44.407001 38.299999
2528 0 1 0.000000 14.292999 44.407001 45.910000
2529 0 1 0.000000 15.782000 38.299999 39.803001
2530 0 1 0.000000 15.782000 45.910000 39.803001
2531 0 1 0.000000 15.782000 38.299999 44.407001
2532 0 1 0.000000 15.782000 45.910000 44.407001
2533 0 1 0.000000 20.365000 40.682999 36.090000
2534 0 1 0.000000 21.740000 36.090000 43.526997
2535 0 1 0.000000 21.797001 39.803001 38.299999
2536 0 1 0.000000 21.797001 39.803001 45.910000
2537 0 1 0.000000 21.797001 44.407001 38.299999
2538 0 1 0.000000 21.797001 44.407001 45.910000
2539 0 1 0.000000 20.308001 38.299999 39.803001
2540 0 1 0.000000 20.308001 45.910000 39.803001
2541 0 1 0.000000 20.308001 38.299999 44.407001
2542 0 1 0.000000 20.308001 45.910000 44.407001
2543 0 1 0.000000 15.036000 42.104996 42.104996
2544 0 1 0.000000 21.054001 42.104996 42.104996
2545 0 1 0.000000 13.452001 42.104996 44.426003
2546 0 1 0.000000 22.637999 42.104996 44.426003
2547 0 1 0.000000 13.452001 42.104996 39.784000
2548 0 1 0.000000 22.637999 42.104996 39.784000
2549 0 1 0.000000 16.622999 39.785000 42.104996
2550 0 1 0.000000 19.466999 39.785000 42.104996
2551 0 1 0.000000 16.622999 44.425003 42.104996
2552 0 1 0.000000 19.466999 44.425003 42.104996
2553 0 1 0.000000 6.015000 27.066000 48.119999
2554 0 1 0.000000 3.695000 31.497000 48.119999
2555 0 1 0.000000 8.335000 31.497000 48.119999
2556 0 1 0.000000 24.059999 24.059999 39.096001
2557 0 1 0.000000 24.059999 26.380999 37.512001
2558 0 1 0.000000 24.059999 26.380999 46.697998
2559 0 1 0.000000 18.045000 27.066000 48.119999
2560 0 1 0.000000 15.725000 31.497000 48.119999
2561 0 1 0.000000 20.365000 31.497000 48.119999
2562 0 1 0.000000 0.000000 48.119999 45.114002
2563 0 1 0.000000 2.320000 48.119999 40.682999
2564 0 1 0.000000 9.710000 48.119999 40.682999
2565 0 1 0.000000 6.015000 39.096001 48.119999
2566 0 1 0.000000 3.695000 43.526997 48.119999
2567 0 1 0.000000 8.335000 43.526997 48.119999
2568 0 1 0.000000 24.059999 36.090000 39.096001
2569 0 1 0.000000 24.059999 38.410999 37.512001
2570 0 1 0.000000 24.059999 38.410999 46.697998
2571 0 1 0.000000 12.030000 48.119999 45.114002
2572 0 1 0.000000 14.349999 48.119999 40.682999
2573 0 1 0.000000 21.740000 48.119999 40.682999
2574 0 1 0.000000 18.045000 39.096001 48.119999
2575 0 1 0.000000 15.725000 43.526997 48.119999
2576 0 1 0.000000 20.365000 43.526997 48.119999
2577 0 1 0.000000 36.090000 24.059999 27.066000
2578 0 1 0.000000 36.090000 26.380999 25.481998
2579 0 1 0.000000 36.090000 26.380999 34.667999
2580 0 1 0.000000 36.090000 33.769001 25.481998
2581 0 1 0.000000 36.090000 33.769001 34.667999
2582 0 1 0.000000 42.104996 33.084000 24.059999
2583 0 1 0.000000 42.104996 25.481998 26.380999
2584 0 1 0.000000 42.104996 34.667999 26.380999
2585 0 1 0.000000 42.104996 25.481998 33.769001
2586 0 1 0.000000 42.104996 34.667999 33.769001
2587 0 1 0.000000 39.785000 28.653000 24.059999
2588 0 1 0.000000 38.410000 24.059999 31.497000
2589 0 1 0.000000 38.353001 27.773001 26.270000
2590 0 1 0.000000 38.353001 27.773001 33.880001
2591 0 1 0.000000 38.353001 32.376999 26.270000
2592 0 1 0.000000 38.353001 32.376999 33.880001
2593 0 1 0.000000 39.841999 26.270000 27.773001
2594 0 1 0.000000 39.841999 33.880001 27.773001
2595 0 1 0.000000 39.841999 26.270000 32.376999
2596 0 1 0.000000 39.841999 33.880001 32.376999
2597 0 1 0.000000 44.425003 28.653000 24.059999
2598 0 1 0.000000 45.799999 24.059999 31.497000
2599 0 1 0.000000 45.857002 27.773001 26.270000
2600 0 1 0.000000 45.857002 27.773001 33.880001
2601 0 1 0.000000 45.857002 32.376999 26.270000
2602 0 1 0.000000 45.857002 32.376999 33.880001
2603 0 1 0.000000 44.368000 26.270000 27.773001
2604 0 1 0.000000 44.368000 33.880001 27.773001
2605 0 1 0.000000 44.368000 26.270000 32.376999
2606 0 1 0.000000 44.368000 33.880001 32.376999
2607 0 1 0.000000 39.096001 30.074999 30.074999
2608 0 1 0.000000 45.114002 30.074999 30.074999
2609 0 1 0.000000 37.512001 30.074999 32.396000
2610 0 1 0.000000 46.697998 30.074999 32.396000
2611 0 1 0.000000 37.512001 30.074999 27.754000
2612 0 1 0.000000 46.697998 30.074999 27.754000
2613 0 1 0.000000 40.682999 27.755001 30.074999
2614 0 1 0.000000 43.526997 27.755001 30.074999
2615 0 1 0.000000 40.682999 32.395000 30.074999
2616 0 1 0.000000 43.526997 32.395000 30.074999
2617 0 1 0.000000 24.059999 36.090000 33.084000
2618 0 1 0.000000 26.380001 36.090000 28.653000
2619 0 1 0.000000 33.770000 36.090000 28.653000
2620 0 1 0.000000 24.059999 45.798996 25.481998
2621 0 1 0.000000 24.059999 45.798996 34.667999
2622 0 1 0.000000 30.074999 45.114002 24.059999
2623 0 1 0.000000 30.074999 37.512001 26.380999
2624 0 1 0.000000 30.074999 46.697998 26.380999
2625 0 1 0.000000 30.074999 37.512001 33.769001
2626 0 1 0.000000 30.074999 46.697998 33.769001
2627 0 1 0.000000 27.755001 40.682999 24.059999
2628 0 1 0.000000 26.380001 36.090000 31.497000
2629 0 1 0.000000 26.322998 39.803001 26.270000
2630 0 1 0.000000 26.322998 39.803001 33.880001
2631 0 1 0.000000 26.322998 44.407001 26.270000
2632 0 1 0.000000 26.322998 44.407001 33.880001
2633 0 1 0.000000 27.812000 38.299999 27.773001
2634 0 1 0.000000 27.812000 45.910000 27.773001
2635 0 1 0.000000 27.812000 38.299999 32.376999
2636 0 1 0.000000 27.812000 45.910000 32.376999
2637 0 1 0.000000 32.395000 40.682999 24.059999
2638 0 1 0.000000 33.770000 36.090000 31.497000
2639 0 1 0.000000 33.827000 39.803001 26.270000
2640 0 1 0.000000 33.827000 39.803001 33.880001
2641 0 1 0.000000 33.827000 44.407001 26.270000
2642 0 1 0.000000 33.827000 44.407001 33.880001
2643 0 1 0.000000 32.337997 38.299999 27.773001
2644 0 1 0.000000 32.337997 45.910000 27.773001
2645 0 1 0.000000 32.337997 38.299999 32.376999
2646 0 1 0.000000 32.337997 45.910000 32.376999
2647 0 1 0.000000 27.066000 42.104996 30.074999
2648 0 1 0.000000 33.084000 42.104996 30.074999
2649 0 1 0.000000 25.481998 42.104996 32.396000
2650 0 1 0.000000 34.667999 42.104996 32.396000
2651 0 1 0.000000 25.481998 42.104996 27.754000
2652 0 1 0.000000 34.667999 42.104996 27.754000
2653 0 1 0.000000 28.653000 39.785000 30.074999
2654 0 1 0.000000 31.497000 39.785000 30.074999
2655 0 1 0.000000 28.653000 44.425003 30.074999
2656 0 1 0.000000 31.497000 44.425003 30.074999
2657 0 1 0.000000 24.059999 33.769001 25.481998
2658 0 1 0.000000 24.059999 33.769001 34.667999
2659 0 1 0.000000 30.074999 33.084000 24.059999
2660 0 1 0.000000 30.074999 25.481998 26.380999
2661 0 1 0.000000 30.074999 34.667999 26.380999
2662 0 1 0.000000 30.074999 25.481998 33.769001
2663 0 1 0.000000 30.074999 34.667999 33.769001
2664 0 1 0.000000 27.755001 28.653000 24.059999
2665 0 1 0.000000 26.380001 24.059999 31.497000
2666 0 1 0.000000 26.322998 27.773001 26.270000
2667 0 1 0.000000 26.322998 27.773001 33.880001
2668 0 1 0.000000 26.322998 32.376999 26.270000
2669 0 1 0.000000 26.322998 32.376999 33.880001
2670 0 1 0.000000 27.812000 26.270000 27.773001
2671 0 1 0.000000 27.812000 33.880001 27.773001
2672 0 1 0.000000 27.812000 26.270000 32.376999
2673 0 1 0.000000 27.812000 33.880001 32.376999
2674 0 1 0.000000 32.395000 28.653000 24.059999
2675 0 1 0.000000 33.770000 24.059999 31.497000
2676 0 1 0.000000 33.827000 27.773001 26.270000
2677 0 1 0.000000 33.827000 27.773001 33.880001
2678 0 1 0.000000 33.827000 32.376999 26.270000
2679 0 1 0.000000 33.827000 32.376999 33.880001
2680 0 1 0.000000 32.337997 26.270000 27.773001
2681 0 1 0.000000 32.337997 33.880001 27.773001
2682 0 1 0.000000 32.337997 26.270000 32.376999
2683 0 1 0.000000 32.337997 33.880001 32.376999
2684 0 1 0.000000 27.066000 30.074999 30.074999
2685 0 1 0.000000 33.084000 30.074999 30.074999
2686 0 1 0.000000 25.481998 30.074999 32.396000
2687 0 1 0.000000 34.667999 30.074999 32.396000
2688 0 1 0.000000 25.481998 30.074999 27.754000
2689 0 1 0.000000 34.667999 30.074999 27.754000
2690 0 1 0.000000 28.653000 27.755001 30.074999
2691 0 1 0.000000 31.497000 27.755001 30.074999
2692 0 1 0.000000 28.653000 32.395000 30.074999
2693 0 1 0.000000 31.497000 32.395000 30.074999
2694 0 1 0.000000 30.074999 27.066000 36.090000
2695 0 1 0.000000 27.755001 31.497000 36.090000
2696 0 1 0.000000 32.395000 31.497000 36.090000
2697 0 1 0.000000 24.059999 33.769001 37.512001
2698 0 1 0.000000 24.059999 33.769001 46.697998
2699 0 1 0.000000 30.074999 33.084000 36.090000
2700 0 1 0.000000 30.074999 25.481998 38.410999
2701 0 1 0.000000 30.074999 34.667999 38.410999
2702 0 1 0.000000 30.074999 25.481998 45.798996
2703 0 1 0.000000 30.074999 34.667999 45.798996
2704 0 1 0.000000 27.755001 28.653000 36.090000
2705 0 1 0.000000 26.380001 24.059999 43.526997
2706 0 1 0.000000 26.322998 27.773001 38.299999
2707 0 1 0.000000 26.322998 27.773001 45.910000
2708 0 1 0.000000 26.322998 32.376999 38.299999
2709 0 1 0.000000 26.322998 32.376999 45.910000
2710 0 1 0.000000 27.812000 26.270000 39.803001
2711 0 1 0.000000 27.812000 33.880001 39.803001
2712 0 1 0.000000 27.812000 26.270000 44.407001
2713 0 1 0.000000 27.812000 33.880001 44.407001
2714 0 1 0.000000 32.395000 28.653000 36.090000
2715 0 1 0.000000 33.770000 24.059999 43.526997
2716 0 1 0.000000 33.827000 27.773001 38.299999
2717 0 1 0.000000 33.827000 27.773001 45.910000
2718 0 1 0.000000 33.827000 32.376999 38.299999
2719 0 1 0.000000 33.827000 32.376999 45.910000
2720 0 1 0.000000 32.337997 26.270000 39.803001
2721 0 1 0.000000 32.337997 33.880001 39.803001
2722 0 1 0.000000 32.337997 26.270000 44.407001
2723 0 1 0.000000 32.337997 33.880001 44.407001
2724 0 1 0.000000 27.066000 30.074999 42.104996
2725 0 1 0.000000 33.084000 30.074999 42.104996
2726 0 1 0.000000 25.481998 30.074999 44.426003
2727 0 1 0.000000 34.667999 30.074999 44.426003
2728 0 1 0.000000 25.481998 30.074999 39.784000
2729 0 1 0.000000 34.667999 30.074999 39.784000
2730 0 1 0.000000 28.653000 27.755001 42.104996
2731 0 1 0.000000 31.497000 27.755001 42.104996
2732 0 1 0.000000 28.653000 32.395000 42.104996
2733 0 1 0.000000 31.497000 32.395000 42.104996
2734 0 1 0.000000 48.119999 24.059999 27.066000
2735 0 1 0.000000 48.119999 26.380999 25.481998
2736 0 1 0.000000 48.119999 26.380999 34.667999
2737 0 1 0.000000 36.090000 36.090000 33.084000
2738 0 1 0.000000 38.410000 36.090000 28.653000
2739 0 1 0.000000 45.799999 36.090000 28.653000
2740 0 1 0.000000 36.090000 36.090000 27.066000
2741 0 1 0.000000 36.090000 38.410999 25.481998
2742 0 1 0.000000 36.090000 38.410999 34.667999
2743 0 1 0.000000 36.090000 45.798996 25.481998
2744 0 1 0.000000 36.090000 45.798996 34.667999
2745 0 1 0.000000 42.104996 45.114002 24.059999
2746 0 1 0.000000 42.104996 37.512001 26.380999
2747 0 1 0.000000 42.104996 46.697998 26.380999
2748 0 1 0.000000 42.104996 37.512001 33.769001
2749 0 1 0.000000 42.104996 46.697998 33.769001
2750 0 1 0.000000 39.785000 40.682999 24.059999
2751 0 1 0.000000 38.410000 36.090000 31.497000
2752 0 1 0.000000 38.353001 39.803001 26.270000
2753 0 1 0.000000 38.353001 39.803001 33.880001
2754 0 1 0.000000 38.353001 44.407001 26.270000
2755 0 1 0.000000 38.353001 44.407001 33.880001
2756 0 1 0.000000 39.841999 38.299999 27.773001
2757 0 1 0.000000 39.841999 45.910000 27.773001
2758 0 1 0.000000 39.841999 38.299999 32.376999
2759 0 1 0.000000 39.841999 45.910000 32.376999
2760 0 1 0.000000 44.425003 40.682999 24.059999
2761 0 1 0.000000 45.799999 36.090000 31.497000
2762 0 1 0.000000 45.857002 39.803001 26.270000
2763 0 1 0.000000 45.857002 39.803001 33.880001
2764 0 1 0.000000 45.857002 44.407001 26.270000
2765 0 1 0.000000 45.857002 44.407001 33.880001
2766 0 1 0.000000 44.368000 38.299999 27.773001
2767 0 1 0.000000 44.368000 45.910000 27.773001
2768 0 1 0.000000 44.368000 38.299999 32.376999
2769 0 1 0.000000 44.368000 45.910000 32.376999
2770 0 1 0.000000 39.096001 42.104996 30.074999
2771 0 1 0.000000 45.114002 42.104996 30.074999
2772 0 1 0.000000 37.512001 42.104996 32.396000
2773 0 1 0.000000 46.697998 42.104996 32.396000
2774 0 1 0.000000 37.512001 42.104996 27.754000
2775 0 1 0.000000 46.697998 42.104996 27.754000
2776 0 1 0.000000 40.682999 39.785000 30.074999
2777 0 1 0.000000 43.526997 39.785000 30.074999
2778 0 1 0.000000 40.682999 44.425003 30.074999
2779 0 1 0.000000 43.526997 44.425003 30.074999
2780 0 1 0.000000 42.104996 27.066000 36.090000
2781 0 1 0.000000 39.785000 31.497000 36.090000
2782 0 1 0.000000 44.425003 31.497000 36.090000
2783 0 1 0.000000 36.090000 24.059999 39.096001
2784 0 1 0.000000 36.090000 26.380999 37.512001
2785 0 1 0.000000 36.090000 26.380999 46.697998
2786 0 1 0.000000 36.090000 33.769001 37.512001
2787 0 1 0.000000 36.090000 33.769001 46.697998
2788 0 1 0.000000 42.104996 33.084000 36.090000
2789 0 1 0.000000 42.104996 25.481998 38.410999
2790 0 1 0.000000 42.104996 34.667999 38.410999
2791 0 1 0.000000 42.104996 25.481998 45.798996
2792 0 1 0.000000 42.104996 34.667999 45.798996
2793 0 1 0.000000 39.785000 28.653000 36.090000
2794 0 1 0.000000 38.410000 24.059999 43.526997
2795 0 1 0.000000 38.353001 27.773001 38.299999
2796 0 1 0.000000 38.353001 27.773001 45.910000
2797 0 1 0.000000 38.353001 32.376999 38.299999
2798 0 1 0.000000 38.353001 32.376999 45.910000
2799 0 1 0.000000 39.841999 26.270000 39.803001
2800 0 1 0.000000 39.841999 33.880001 39.803001
2801 0 1 0.000000 39.841999 26.270000 44.407001
2802 0 1 0.000000 39.841999 33.880001 44.407001
2803 0 1 0.000000 44.425003 28.653000 36.090000
2804 0 1 0.000000 45.799999 24.059999 43.526997
2805 0 1 0.000000 45.857002 27.773001 38.299999
2806 0 1 0.000000 45.857002 27.773001 45.910000
2807 0 1 0.000000 45.857002 32.376999 38.299999
2808 0 1 0.000000 45.857002 32.376999 45.910000
2809 0 1 0.000000 44.368000 26.270000 39.803001
2810 0 1 0.000000 44.368000 33.880001 39.803001
2811 0 1 0.000000 44.368000 26.270000 44.407001
2812 0 1 0.000000 44.368000 33.880001 44.407001
2813 0 1 0.000000 39.096001 30.074999 42.104996
2814 0 1 0.000000 45.114002 30.074999 42.104996
2815 0 1 0.000000 37.512001 30.074999 44.426003
2816 0 1 0.000000 46.697998 30.074999 44.426003
2817 0 1 0.000000 37.512001 30.074999 39.784000
2818 0 1 0.000000 46.697998 30.074999 39.784000
2819 0 1 0.000000 40.682999 27.755001 42.104996
2820 0 1 0.000000 43.526997 27.755001 42.104996
2821 0 1 0.000000 40.682999 32.395000 42.104996
2822 0 1 0.000000 43.526997 32.395000 42.104996
2823 0 1 0.000000 24.059999 48.119999 33.084000
2824 0 1 0.000000 26.380001 48.119999 28.653000
2825 0 1 0.000000 33.770000 48.119999 28.653000
2826 0 1 0.000000 30.074999 39.096001 36.090000
2827 0 1 0.000000 27.755001 43.526997 36.090000
2828 0 1 0.000000 32.395000 43.526997 36.090000
2829 0 1 0.000000 24.059999 36.090000 45.114002
2830 0 1 0.000000 26.380001 36.090000 40.682999
2831 0 1 0.000000 33.770000 36.090000 40.682999
2832 0 1 0.000000 24.059999 45.798996 37.512001
2833 0 1 0.000000 24.059999 45.798996 46.697998
2834 0 1 0.000000 30.074999 45.114002 36.090000
2835 0 1 0.000000 30.074999 37.512001 38.410999
2836 0 1 0.000000 30.074999 46.697998 38.410999
2837 0 1 0.000000 30.074999 37.512001 45.798996
2838 0 1 0.000000 30.074999 46.697998 45.798996
2839 0 1 0.000000 27.755001 40.682999 36.090000
2840 0 1 0.000000 26.380001 36.090000 43.526997
2841 0 1 0.000000 26.322998 39.803001 38.299999
2842 0 1 0.000000 26.322998 39.803001 45.910000
2843 0 1 0.000000 26.322998 44.407001 38.299999
2844 0 1 0.000000 26.322998 44.407001 45.910000
2845 0 1 0.000000 27.812000 38.299999 39.803001
2846 0 1 0.000000 27.812000 45.910000 39.803001
2847 0 1 0.000000 27.812000 38.299999 44.407001
2848 0 1 0.000000 27.812000 45.910000 44.407001
2849 0 1 0.000000 32.395000 40.682999 36.090000
2850 0 1 0.000000 33.770000 36.090000 43.526997
2851 0 1 0.000000 33.827000 39.803001 38.299999
2852 0 1 0.000000 33.827000 39.803001 45.910000
2853 0 1 0.000000 33.827000 44.407001 38.299999
2854 0 1 0.000000 33.827000 44.407001 45.910000
2855 0 1 0.000000 32.337997 38.299999 39.803001
2856 0 1 0.000000 32.337997 45.910000 39.803001
2857 0 1 0.000000 32.337997 38.299999 44.407001
2858 0 1 0.000000 32.337997 45.910000 44.407001
2859 0 1 0.000000 27.066000 42.104996 42.104996
2860 0 1 0.000000 33.084000 42.104996 42.104996
2861 0 1 0.000000 25.481998 42.104996 44.426003
2862 0 1 0.000000 34.667999 42.104996 44.426003
2863 0 1 0.000000 25.481998 42.104996 39.784000
2864 0 1 0.000000 34.667999 42.104996 39.784000
2865 0 1 0.000000 28.653000 39.785000 42.104996
2866 0 1 0.000000 31.497000 39.785000 42.104996
2867 0 1 0.000000 28.653000 44.425003 42.104996
2868 0 1 0.000000 31.497000 44.425003 42.104996
2869 0 1 0.000000 48.119999 36.090000 27.066000
2870 0 1 0.000000 48.119999 38.410999 25.481998
2871 0 1 0.000000 48.119999 38.410999 34.667999
2872 0 1 0.000000 36.090000 48.119999 33.084000
2873 0 1 0.000000 38.410000 48.119999 28.653000
2874 0 1 0.000000 45.799999 48.119999 28.653000
2875 0 1 0.000000 42.104996 39.096001 36.090000
2876 0 1 0.000000 39.785000 43.526997 36.090000
2877 0 1 0.000000 44.425003 43.526997 36.090000
2878 0 1 0.000000 36.090000 36.090000 45.114002
2879 0 1 0.000000 38.410000 36.090000 40.682999
2880 0 1 0.000000 45.799999 36.090000 40.682999
2881 0 1 0.000000 36.090000 36.090000 39.096001
2882 0 1 0.000000 36.090000 38.410999 37.512001
2883 0 1 0.000000 36.090000 38.410999 46.697998
2884 0 1 0.000000 36.090000 45.798996 37.512001
2885 0 1 0.000000 36.090000 45.798996 46.697998
2886 0 1 0.000000 42.104996 45.114002 36.090000
2887 0 1 0.000000 42.104996 37.512001 38.410999
2888 0 1 0.000000 42.104996 46.697998 38.410999
2889 0 1 0.000000 42.104996 37.512001 45.798996
2890 0 1 0.000000 42.104996 46.697998 45.798996
2891 0 1 0.000000 39.785000 40.682999 36.090000
2892 0 1 0.000000 38.410000 36.090000 43.526997
2893 0 1 0.000000 38.353001 39.803001 38.299999
2894 0 1 0.000000 38.353001 39.803001 45.910000
2895 0 1 0.000000 38.353001 44.407001 38.299999
2896 0 1 0.000000 38.353001 44.407001 45.910000
2897 0 1 0.000000 39.841999 38.299999 39.803001
2898 0 1 0.000000 39.841999 45.910000 39.803001
2899 0 1 0.000000 39.841999 38.299999 44.407001
2900 0 1 0.000000 39.841999 45.910000 44.407001
2901 0 1 0.000000 44.425003 40.682999 36.090000
2902 0 1 0.000000 45.799999 36.090000 43.526997
2903 0 1 0.000000 45.857002 39.803001 38.299999
2904 0 1 0.000000 45.857002 39.803001 45.910000
2905 0 1 0.000000 45.857002 44.407001 38.299999
2906 0 1 0.000000 45.857002 44.407001 45.910000
2907 0 1 0.000000 44.368000 38.299999 39.803001
2908 0 1 0.000000 44.368000 45.910000 39.803001
2909 0 1 0.000000 44.368000 38.299999 44.407001
2910 0 1 0.000000 44.368000 45.910000 44.407001
2911 0 1 0.000000 39.096001 42.104996 42.104996
2912 0 1 0.000000 45.114002 42.104996 42.104996
2913 0 1 0.000000 37.512001 42.104996 44.426003
2914 0 1 0.000000 46.697998 42.104996 44.426003
2915 0 1 0.000000 37.512001 42.104996 39.784000
2916 0 1 0.000000 46.697998 42.104996 39.784000
2917 0 1 0.000000 40.682999 39.785000 42.104996
2918 0 1 0.000000 43.526997 39.785000 42.104996
2919 0 1 0.000000 40.682999 44.425003 42.104996
2920 0 1 0.000000 43.526997 44.425003 42.104996
2921 0 1 0.000000 30.074999 27.066000 48.119999
2922 0 1 0.000000 27.755001 31.497000 48.119999
2923 0 1 0.000000 32.395000 31.497000 48.119999
2924 0 1 0.000000 48.119999 24.059999 39.096001
2925 0 1 0.000000 48.119999 26.380999 37.512001
2926 0 1 0.000000 48.119999 26.380999 46.697998
2927 0 1 0.000000 42.104996 27.066000 48.119999
2928 0 1 0.000000 39.785000 31.497000 48.119999
2929 0 1 0.000000 44.425003 31.497000 48.119999
2930 0 1 0.000000 24.059999 48.119999 45.114002
2931 0 1 0.000000 26.380001 48.119999 40.682999
2932 0 1 0.000000 33.770000 48.119999 40.682999
2933 0 1 0.000000 30.074999 39.096001 48.119999
2934 0 1 0.000000 27.755001 43.526997 48.119999
2935 0 1 0.000000 32.395000 43.526997 48.119999
2936 0 1 0.000000 48.119999 36.090000 39.096001
2937 0 1 0.000000 48.119999 38.410999 37.512001
2938 0 1 0.000000 48.119999 38.410999 46.697998
2939 0 1 0.000000 36.090000 48.119999 45.114002
2940 0 1 0.000000 38.410000 48.119999 40.682999
2941 0 1 0.000000 45.799999 48.119999 40.682999
2942 0 1 0.000000 42.104996 39.096001 48.119999
2943 0 1 0.000000 39.785000 43.526997 48.119999
2944 0 1 0.000000 44.425003 43.526997 48.119999
2945 0 2 0.000000 12.030000 6.015000 0.000000
2946 0 2 0.000000 18.045000 0.000000 6.015000
2947 0 2 0.000000 15.038000 0.000000 0.000000
2948 0 2 0.000000 21.052999 0.000000 0.000000
2949 0 2 0.000000 12.030000 2.992000 6.015000
2950 0 2 0.000000 12.030000 9.038000 6.015000
2951 0 2 0.000000 18.045000 6.015000 2.992000
2952 0 2 0.000000 18.045000 6.015000 9.038000
2953 0 2 0.000000 0.000000 18.045000 0.000000
2954 0 2 0.000000 6.015000 12.030000 6.015000
2955 0 2 0.000000 3.008000 12.030000 0.000000
2956 0 2 0.000000 9.023000 12.030000 0.000000
2957 0 2 0.000000 0.000000 15.022000 6.015000
2958 0 2 0.000000 0.000000 21.068001 6.015000
2959 0 2 0.000000 6.015000 18.045000 2.992000
2960 0 2 0.000000 6.015000 18.045000 9.038000
2961 0 2 0.000000 0.000000 6.015000 0.000000
2962 0 2 0.000000 6.015000 0.000000 6.015000
2963 0 2 0.000000 3.008000 0.000000 0.000000
2964 0 2 0.000000 9.023000 0.000000 0.000000
2965 0 2 0.000000 0.000000 2.992000 6.015000
2966 0 2 0.000000 0.000000 9.038000 6.015000
2967 0 2 0.000000 6.015000 6.015000 2.992000
2968 0 2 0.000000 6.015000 6.015000 9.038000
2969 0 2 0.000000 0.000000 6.015000 12.030000
2970 0 2 0.000000 6.015000 0.000000 18.045000
2971 0 2 0.000000 3.008000 0.000000 12.030000
2972 0 2 0.000000 9.023000 0.000000 12.030000
2973 0 2 0.000000 0.000000 2.992000 18.045000
2974 0 2 0.000000 0.000000 9.038000 18.045000
2975 0 2 0.000000 6.015000 6.015000 15.022000
2976 0 2 0.000000 6.015000 6.015000 21.068001
2977 0 2 0.000000 12.030000 18.045000 0.000000
2978 0 2 0.000000 18.045000 12.030000 6.015000
2979 0 2 0.000000 15.038000 12.030000 0.000000
2980 0 2 0.000000 21.052999 12.030000 0.000000
2981 0 2 0.000000 12.030000 15.022000 6.015000
2982 0 2 0.000000 12.030000 21.068001 6.015000
2983 0 2 0.000000 18.045000 18.045000 2.992000
2984 0 2 0.000000 18.045000 18.045000 9.038000
2985 0 2 0.000000 12.030000 6.015000 12.030000
2986 0 2 0.000000 18.045000 0.000000 18.045000
2987 0 2 0.000000 15.038000 0.000000 12.030000
2988 0 2 0.000000 21.052999 0.000000 12.030000
2989 0 2 0.000000 12.030000 2.992000 18.045000
2990 0 2 0.000000 12.030000 9.038000 18.045000
2991 0 2 0.000000 18.045000 6.015000 15.022000
2992 0 2 0.000000 18.045000 6.015000 21.068001
2993 0 2 0.000000 0.000000 18.045000 12.030000
2994 0 2 0.000000 6.015000 12.030000 18.045000
2995 0 2 0.000000 3.008000 12.030000 12.030000
2996 0 2 0.000000 9.023000 12.030000 12.030000
2997 0 2 0.000000 0.000000 15.022000 18.045000
2998 0 2 0.000000 0.000000 21.068001 18.045000
2999 0 2 0.000000 6.015000 18.045000 15.022000
3000 0 2 0.000000 6.015000 18.045000 21.068001
3001 0 2 0.000000 12.030000 18.045000 12.030000
3002 0 2 0.000000 18.045000 12.030000 18.045000
3003 0 2 0.000000 15.038000 12.030000 12.030000
3004 0 2 0.000000 21.052999 12.030000 12.030000
3005 0 2 0.000000 12.030000 15.022000 18.045000
3006 0 2 0.000000 12.030000 21.068001 18.045000
3007 0 2 0.000000 18.045000 18.045000 15.022000
3008 0 2 0.000000 18.045000 18.045000 21.068001
3009 0 2 0.000000 36.090000 6.015000 0.000000
3010 0 2 0.000000 42.104996 0.000000 6.015000
3011 0 2 0.000000 39.098000 0.000000 0.000000
3012 0 2 0.000000 45.112999 0.000000 0.000000
3013 0 2 0.000000 36.090000 2.992000 6.015000
3014 0 2 0.000000 36.090000 9.038000 6.015000
3015 0 2 0.000000 42.104996 6.015000 2.992000
3016 0 2 0.000000 42.104996 6.015000 9.038000
3017 0 2 0.000000 24.059999 18.045000 0.000000
3018 0 2 0.000000 30.074999 12.030000 6.015000
3019 0 2 0.000000 27.068001 12.030000 0.000000
3020 0 2 0.000000 33.083000 12.030000 0.000000
3021 0 2 0.000000 24.059999 15.022000 6.015000
3022 0 2 0.000000 24.059999 21.068001 6.015000
3023 0 2 0.000000 30.074999 18.045000 2.992000
3024 0 2 0.000000 30.074999 18.045000 9.038000
3025 0 2 0.000000 24.059999 6.015000 0.000000
3026 0 2 0.000000 30.074999 0.000000 6.015000
3027 0 2 0.000000 27.068001 0.000000 0.000000
3028 0 2 0.000000 33.083000 0.000000 0.000000
3029 0 2 0.000000 24.059999 2.992000 6.015000
3030 0 2 0.000000 24.059999 9.038000 6.015000
3031 0 2 0.000000 30.074999 6.015000 2.992000
3032 0 2 0.000000 30.074999 6.015000 9.038000
3033 0 2 0.000000 24.059999 6.015000 12.030000
3034 0 2 0.000000 30.074999 0.000000 18.045000
3035 0 2 0.000000 27.068001 0.000000 12.030000
3036 0 2 0.000000 33.083000 0.000000 12.030000
3037 0 2 0.000000 24.059999 2.992000 18.045000
3038 0 2 0.000000 24.059999 9.038000 18.045000
3039 0 2 0.000000 30.074999 6.015000 15.022000
3040 0 2 0.000000 30.074999 6.015000 21.068001
3041 0 2 0.000000 36.090000 18.045000 0.000000
3042 0 2 0.000000 42.104996 12.030000 6.015000
3043 0 2 0.000000 39.098000 12.030000 0.000000
3044 0 2 0.000000 45.112999 12.030000 0.000000
3045 0 2 0.000000 36.090000 15.022000 6.015000
3046 0 2 0.000000 36.090000 21.068001 6.015000
3047 0 2 0.000000 42.104996 18.045000 2.992000
3048 0 2 0.000000 42.104996 18.045000 9.038000
3049 0 2 0.000000 36.090000 6.015000 12.030000
3050 0 2 0.000000 42.104996 0.000000 18.045000
3051 0 2 0.000000 39.098000 0.000000 12.030000
3052 0 2 0.000000 45.112999 0.000000 12.030000
3053 0 2 0.000000 36.090000 2.992000 18.045000
3054 0 2 0.000000 36.090000 9.038000 18.045000
3055 0 2 0.000000 42.104996 6.015000 15.022000
3056 0 2 0.000000 42.104996 6.015000 21.068001
3057 0 2 0.000000 24.059999 18.045000 12.030000
3058 0 2 0.000000 30.074999 12.030000 18.045000
3059 0 2 0.000000 27.068001 12.030000 12.030000
3060 0 2 0.000000 33.083000 12.030000 12.030000
3061 0 2 0.000000 24.059999 15.022000 18.045000
3062 0 2 0.000000 24.059999 21.068001 18.045000
3063 0 2 0.000000 30.074999 18.045000 15.022000
3064 0 2 0.000000 30.074999 18.045000 21.068001
3065 0 2 0.000000 36.090000 18.045000 12.030000
3066 0 2 0.000000 42.104996 12.030000 18.045000
3067 0 2 0.000000 39.098000 12.030000 12.030000
3068 0 2 0.000000 45.112999 12.030000 12.030000
3069 0 2 0.000000 36.090000 15.022000 18.045000
3070 0 2 0.000000 36.090000 21.068001 18.045000
3071 0 2 0.000000 42.104996 18.045000 15.022000
3072 0 2 0.000000 42.104996 18.045000 21.068001
3073 0 2 0.000000 12.030000 30.074999 0.000000
3074 0 2 0.000000 18.045000 24.059999 6.015000
3075 0 2 0.000000 15.038000 24.059999 0.000000
3076 0 2 0.000000 21.052999 24.059999 0.000000
3077 0 2 0.000000 12.030000 27.052000 6.015000
3078 0 2 0.000000 12.030000 33.098000 6.015000
3079 0 2 0.000000 18.045000 30.074999 2.992000
3080 0 2 0.000000 18.045000 30.074999 9.038000
3081 0 2 0.000000 0.000000 42.104996 0.000000
3082 0 2 0.000000 6.015000 36.090000 6.015000
3083 0 2 0.000000 3.008000 36.090000 0.000000
3084 0 2 0.000000 9.023000 36.090000 0.000000
3085 0 2 0.000000 0.000000 39.082001 6.015000
3086 0 2 0.000000 0.000000 45.128002 6.015000
3087 0 2 0.000000 6.015000 42.104996 2.992000
3088 0 2 0.000000 6.015000 42.104996 9.038000
3089 0 2 0.000000 0.000000 30.074999 0.000000
3090 0 2 0.000000 6.015000 24.059999 6.015000
3091 0 2 0.000000 3.008000 24.059999 0.000000
3092 0 2 0.000000 9.023000 24.059999 0.000000
3093 0 2 0.000000 0.000000 27.052000 6.015000
3094 0 2 0.000000 0.000000 33.098000 6.015000
3095 0 2 0.000000 6.015000 30.074999 2.992000
3096 0 2 0.000000 6.015000 30.074999 9.038000
3097 0 2 0.000000 0.000000 30.074999 12.030000
3098 0 2 0.000000 6.015000 24.059999 18.045000
3099 0 2 0.000000 3.008000 24.059999 12.030000
3100 0 2 0.000000 9.023000 24.059999 12.030000
3101 0 2 0.000000 0.000000 27.052000 18.045000
3102 0 2 0.000000 0.000000 33.098000 18.045000
3103 0 2 0.000000 6.015000 30.074999 15.022000
3104 0 2 0.000000 6.015000 30.074999 21.068001
3105 0 2 0.000000 12.030000 42.104996 0.000000
3106 0 2 0.000000 18.045000 36.090000 6.015000
3107 0 2 0.000000 15.038000 36.090000 0.000000
3108 0 2 0.000000 21.052999 36.090000 0.000000
3109 0 2 0.000000 12.030000 39.082001 6.015000
3110 0 2 0.000000 12.030000 45.128002 6.015000
3111 0 2 0.000000 18.045000 42.104996 2.992000
3112 0 2 0.000000 18.045000 42.104996 9.038000
3113 0 2 0.000000 12.030000 30.074999 12.030000
3114 0 2 0.000000 18.045000 24.059999 18.045000
3115 0 2 0.000000 15.038000 24.059999 12.030000
3116 0 2 0.000000 21.052999 24.059999 12.030000
3117 0 2 0.000000 12.030000 27.052000 18.045000
3118 0 2 0.000000 12.030000 33.098000 18.045000
3119 0 2 0.000000 18.045000 30.074999 15.022000
3120 0 2 0.000000 18.045000 30.074999 21.068001
3121 0 2 0.000000 0.000000 42.104996 12.030000
3122 0 2 0.000000 6.015000 36.090000 18.045000
3123 0 2 0.000000 3.008000 36.090000 12.030000
3124 0 2 0.000000 9.023000 36.090000 12.030000
3125 0 2 0.000000 0.000000 39.082001 18.045000
3126 0 2 0.000000 0.000000 45.128002 18.045000
3127 0 2 0.000000 6.015000 42.104996 15.022000
3128 0 2 0.000000 6.015000 42.104996 21.068001
3129 0 2 0.000000 12.030000 42.104996 12.030000
3130 0 2 0.000000 18.045000 36.090000 18.045000
3131 0 2 0.000000 15.038000 36.090000 12.030000
3132 0 2 0.000000 21.052999 36.090000 12.030000
3133 0 2 0.000000 12.030000 39.082001 18.045000
3134 0 2 0.000000 12.030000 45.128002 18.045000
3135 0 2 0.000000 18.045000 42.104996 15.022000
3136 0 2 0.000000 18.045000 42.104996 21.068001
3137 0 2 0.000000 36.090000 30.074999 0.000000
3138 0 2 0.000000 42.104996 24.059999 6.015000
3139 0 2 0.000000 39.098000 24.059999 0.000000
3140 0 2 0.000000 45.112999 24.059999 0.000000
3141 0 2 0.000000 36.090000 27.052000 6.015000
3142 0 2 0.000000 36.090000 33.098000 6.015000
3143 0 2 0.000000 42.104996 30.074999 2.992000
3144 0 2 0.000000 42.104996 30.074999 9.038000
3145 0 2 0.000000 24.059999 42.104996 0.000000
3146 0 2 0.000000 30.074999 36.090000 6.015000
3147 0 2 0.000000 27.068001 36.090000 0.000000
3148 0 2 0.000000 33.083000 36.090000 0.000000
3149 0 2 0.000000 24.059999 39.082001 6.015000
3150 0 2 0.000000 24.059999 45.128002 6.015000
3151 0 2 0.000000 30.074999 42.104996 2.992000
3152 0 2 0.000000 30.074999 42.104996 9.038000
3153 0 2 0.000000 24.059999 30.074999 0.000000
3154 0 2 0.000000 30.074999 24.059999 6.015000
3155 0 2 0.000000 27.068001 24.059999 0.000000
3156 0 2 0.000000 33.083000 24.059999 0.000000
3157 0 2 0.000000 24.059999 27.052000 6.015000
3158 0 2 0.000000 24.059999 33.098000 6.015000
3159 0 2 0.000000 30.074999 30.074999 2.992000
3160 0 2 0.000000 30.074999 30.074999 9.038000
3161 0 2 0.000000 24.059999 30.074999 12.030000
3162 0 2 0.000000 30.074999 24.059999 18.045000
3163 0 2 0.000000 27.068001 24.059999 12.030000
3164 0 2 0.000000 33.083000 24.059999 12.030000
3165 0 2 0.000000 24.059999 27.052000 18.045000
3166 0 2 0.000000 24.059999 33.098000 18.045000
3167 0 2 0.000000 30.074999 30.074999 15.022000
3168 0 2 0.000000 30.074999 30.074999 21.068001
3169 0 2 0.000000 36.090000 42.104996 0.000000
3170 0 2 0.000000 42.104996 36.090000 6.015000
3171 0 2 0.000000 39.098000 36.090000 0.000000
3172 0 2 0.000000 45.112999 36.090000 0.000000
3173 0 2 0.000000 36.090000 39.082001 6.015000
3174 0 2 0.000000 36.090000 45.128002 6.015000
3175 0 2 0.000000 42.104996 42.104996 2.992000
3176 0 2 0.000000 42.104996 42.104996 9.038000
3177 0 2 0.000000 36.090000 30.074999 12.030000
3178 0 2 0.000000 42.104996 24.059999 18.045000
3179 0 2 0.000000 39.098000 24.059999 12.030000
3180 0 2 0.000000 45.112999 24.059999 12.030000
3181 0 2 0.000000 36.090000 27.052000 18.045000
3182 0 2 0.000000 36.090000 33.098000 18.045000
3183 0 2 0.000000 42.104996 30.074999 15.022000
3184 0 2 0.000000 42.104996 30.074999 21.068001
3185 0 2 0.000000 24.059999 42.104996 12.030000
3186 0 2 0.000000 30.074999 36.090000 18.045000
3187 0 2 0.000000 27.068001 36.090000 12.030000
3188 0 2 0.000000 33.083000 36.090000 12.030000
3189 0 2 0.000000 24.059999 39.082001 18.045000
3190 0 2 0.000000 24.059999 45.128002 18.045000
3191 0 2 0.000000 30.074999 42.104996 15.022000
3192 0 2 0.000000 30.074999 42.104996 21.068001
3193 0 2 0.000000 36.090000 42.104996 12.030000
3194 0 2 0.000000 42.104996 36.090000 18.045000
3195 0 2 0.000000 39.098000 36.090000 12.030000
3196 0 2 0.000000 45.112999 36.090000 12.030000
3197 0 2 0.000000 36.090000 39.082001 18.045000
3198 0 2 0.000000 36.090000 45.128002 18.045000
3199 0 2 0.000000 42.104996 42.104996 15.022000
3200 0 2 0.000000 42.104996 42.104996 21.068001
3201 0 2 0.000000 12.030000 6.015000 24.059999
3202 0 2 0.000000 18.045000 0.000000 30.074999
3203 0 2 0.000000 15.038000 0.000000 24.059999
3204 0 2 0.000000 21.052999 0.000000 24.059999
3205 0 2 0.000000 12.030000 2.992000 30.074999
3206 0 2 0.000000 12.030000 9.038000 30.074999
3207 0 2 0.000000 18.045000 6.015000 27.052000
3208 0 2 0.000000 18.045000 6.015000 33.098000
3209 0 2 0.000000 0.000000 18.045000 24.059999
3210 0 2 0.000000 6.015000 12.030000 30.074999
3211 0 2 0.000000 3.008000 12.030000 24.059999
3212 0 2 0.000000 9.023000 12.030000 24.059999
3213 0 2 0.000000 0.000000 15.022000 30.074999
3214 0 2 0.000000 0.000000 21.068001 30.074999
3215 0 2 0.000000 6.015000 18.045000 27.052000
3216 0 2 0.000000 6.015000 18.045000 33.098000
3217 0 2 0.000000 0.000000 6.015000 24.059999
3218 0 2 0.000000 6.015000 0.000000 30.074999
3219 0 2 0.000000 3.008000 0.000000 24.059999
3220 0 2 0.000000 9.023000 0.000000 24.059999
3221 0 2 0.000000 0.000000 2.992000 30.074999
3222 0 2 0.000000 0.000000 9.038000 30.074999
3223 0 2 0.000000 6.015000 6.015000 27.052000
3224 0 2 0.000000 6.015000 6.015000 33.098000
3225 0 2 0.000000 0.000000 6.015000 36.090000
3226 0 2 0.000000 6.015000 0.000000 42.104996
3227 0 2 0.000000 3.008000 0.000000 36.090000
3228 0 2 0.000000 9.023000 0.000000 36.090000
3229 0 2 0.000000 0.000000 2.992000 42.104996
3230 0 2 0.000000 0.000000 9.038000 42.104996
3231 0 2 0.000000 6.015000 6.015000 39.082001
3232 0 2 0.000000 6.015000 6.015000 45.128002
3233 0 2 0.000000 12.030000 18.045000 24.059999
3234 0 2 0.000000 18.045000 12.030000 30.074999
3235 0 2 0.000000 15.038000 12.030000 24.059999
3236 0 2 0.000000 21.052999 12.030000 24.059999
3237 0 2 0.000000 12.030000 15.022000 30.074999
3238 0 2 0.000000 12.030000 21.068001 30.074999
3239 0 2 0.000000 18.045000 18.045000 27.052000
3240 0 2 0.000000 18.045000 18.045000 33.098000
3241 0 2 0.000000 12.030000 6.015000 36.090000
3242 0 2 0.000000 18.045000 0.000000 42.104996
3243 0 2 0.000000 15.038000 0.000000 36.090000
3244 0 2 0.000000 21.052999 0.000000 36.090000
3245 0 2 0.000000 12.030000 2.992000 42.104996
3246 0 2 0.000000 12.030000 9.038000 42.104996
3247 0 2 0.000000 18.045000 6.015000 39.082001
3248 0 2 0.000000 18.045000 6.015000 45.128002
3249 0 2 0.000000 0.000000 18.045000 36.090000
3250 0 2 0.000000 6.015000 12.030000 42.104996
3251 0 2 0.000000 3.008000 12.030000 36.090000
3252 0 2 0.000000 9.023000 12.030000 36.090000
3253 0 2 0.000000 0.000000 15.022000 42.104996
3254 0 2 0.000000 0.000000 21.068001 42.104996
3255 0 2 0.000000 6.015000 18.045000 39.082001
3256 0 2 0.000000 6.015000 18.045000 45.128002
3257 0 2 0.000000 12.030000 18.045000 36.090000
3258 0 2 0.000000 18.045000 12.030000 42.104996
3259 0 2 0.000000 15.038000 12.030000 36.090000
3260 0 2 0.000000 21.052999 12.030000 36.090000
3261 0 2 0.000000 12.030000 15.022000 42.104996
3262 0 2 0.000000 12.030000 21.068001 42.104996
3263 0 2 0.000000 18.045000 18.045000 39.082001
3264 0 2 0.000000 18.045000 18.045000 45.128002
3265 0 2 0.000000 36.090000 6.015000 24.059999
3266 0 2 0.000000 42.104996 0.000000 30.074999
3267 0 2 0.000000 39.098000 0.000000 24.059999
3268 0 2 0.000000 45.112999 0.000000 24.059999
3269 0 2 0.000000 36.090000 2.992000 30.074999
3270 0 2 0.000000 36.090000 9.038000 30.074999
3271 0 2 0.000000 42.104996 6.015000 27.052000
3272 0 2 0.000000 42.104996 6.015000 33.098000
3273 0 2 0.000000 24.059999 18.045000 24.059999
3274 0 2 0.000000 30.074999 12.030000 30.074999
3275 0 2 0.000000 27.068001 12.030000 24.059999
3276 0 2 0.000000 33.083000 12.030000 24.059999
3277 0 2 0.000000 24.059999 15.022000 30.074999
3278 0 2 0.000000 24.059999 21.068001 30.074999
3279 0 2 0.000000 30.074999 18.045000 27.052000
3280 0 2 0.000000 30.074999 18.045000 33.098000
3281 0 2 0.000000 24.059999 6.015000 24.059999
3282 0 2 0.000000 30.074999 0.000000 30.074999
3283 0 2 0.000000 27.068001 0.000000 24.059999
3284 0 2 0.000000 33.083000 0.000000 24.059999
3285 0 2 0.000000 24.059999 2.992000 30.074999
3286 0 2 0.000000 24.059999 9.038000 30.074999
3287 0 2 0.000000 30.074999 6.015000 27.052000
3288 0 2 0.000000 30.074999 6.015000 33.098000
3289 0 2 0.000000 24.059999 6.015000 36.090000
3290 0 2 0.000000 30.074999 0.000000 42.104996
3291 0 2 0.000000 27.068001 0.000000 36.090000
3292 0 2 0.000000 33.083000 0.000000 36.090000
3293 0 2 0.000000 24.059999 2.992000 42.104996
3294 0 2 0.000000 24.059999 9.038000 42.104996
3295 0 2 0.000000 30.074999 6.015000 39.082001
3296 0 2 0.000000 30.074999 6.015000 45.128002
3297 0 2 0.000000 36.090000 18.045000 24.059999
3298 0 2 0.000000 42.104996 12.030000 30.074999
3299 0 2 0.000000 39.098000 12.030000 24.059999
3300 0 2 0.000000 45.112999 12.030000 24.059999
3301 0 2 0.000000 36.090000 15.022000 30.074999
3302 0 2 0.000000 36.090000 21.068001 30.074999
3303 0 2 0.000000 42.104996 18.045000 27.052000
3304 0 2 0.000000 42.104996 18.045000 33.098000
3305 0 2 0.000000 36.090000 6.015000 36.090000
3306 0 2 0.000000 42.104996 0.000000 42.104996
3307 0 2 0.000000 39.098000 0.000000 36.090000
3308 0 2 0.000000 45.112999 0.000000 36.090000
3309 0 2 0.000000 36.090000 2.992000 42.104996
3310 0 2 0.000000 36.090000 9.038000 42.104996
3311 0 2 0.000000 42.104996 6.015000 39.082001
3312 0 2 0.000000 42.104996 6.015000 45.128002
3313 0 2 0.000000 24.059999 18.045000 36.090000
3314 0 2 0.000000 30.074999 12.030000 42.104996
3315 0 2 0.000000 27.068001 12.030000 36.090000
3316 0 2 0.000000 33.083000 12.030000 36.090000
3317 0 2 0.000000 24.059999 15.022000 42.104996
3318 0 2 0.000000 24.059999 21.068001 42.104996
3319 0 2 0.000000 30.074999 18.045000 39.082001
3320 0 2 0.000000 30.074999 18.045000 45.128002
3321 0 2 0.000000 36.090000 18.045000 36.090000
3322 0 2 0.000000 42.104996 12.030000 42.104996
3323 0 2 0.000000 39.098000 12.030000 36.090000
3324 0 2 0.000000 45.112999 12.030000 36.090000
3325 0 2 0.000000 36.090000 15.022000 42.104996
3326 0 2 0.000000 36.090000 21.068001 42.104996
3327 0 2 0.000000 42.104996 18.045000 39.082001
3328 0 2 0.000000 42.104996 18.045000 45.128002
3329 0 2 0.000000 12.030000 30.074999 24.059999
3330 0 2 0.000000 18.045000 24.059999 30.074999
3331 0 2 0.000000 15.038000 24.059999 24.059999
3332 0 2 0.000000 21.052999 24.059999 24.059999
3333 0 2 0.000000 12.030000 27.052000 30.074999
3334 0 2 0.000000 12.030000 33.098000 30.074999
3335 0 2 0.000000 18.045000 30.074999 27.052000
3336 0 2 0.000000 18.045000 30.074999 33.098000
3337 0 2 0.000000 0.000000 42.104996 24.059999
3338 0 2 0.000000 6.015000 36.090000 30.074999
3339 0 2 0.000000 3.008000 36.090000 24.059999
3340 0 2 0.000000 9.023000 36.090000 24.059999
3341 0 2 0.000000 0.000000 39.082001 30.074999
3342 0 2 0.000000 0.000000 45.128002 30.074999
3343 0 2 0.000000 6.015000 42.104996 27.052000
3344 0 2 0.000000 6.015000 42.104996 33.098000
3345 0 2 0.000000 0.000000 30.074999 24.059999
3346 0 2 0.000000 6.015000 24.059999 30.074999
3347 0 2 0.000000 3.008000 24.059999 24.059999
3348 0 2 0.000000 9.023000 24.059999 24.059999
3349 0 2 0.000000 0.000000 27.052000 30.074999
3350 0 2 0.000000 0.000000 33.098000 30.074999
3351 0 2 0.000000 6.015000 30.074999 27.052000
3352 0 2 0.000000 6.015000 30.074999 33.098000
3353 0 2 0.000000 0.000000 30.074999 36.090000
3354 0 2 0.000000 6.015000 24.059999 42.104996
3355 0 2 0.000000 3.008000 24.059999 36.090000
3356 0 2 0.000000 9.023000 24.059999 36.090000
3357 0 2 0.000000 0.000000 27.052000 42.104996
3358 0 2 0.000000 0.000000 33.098000 42.104996
3359 0 2 0.000000 6.015000 30.074999 39.082001
3360 0 2 0.000000 6.015000 30.074999 45.128002
3361 0 2 0.000000 12.030000 42.104996 24.059999
3362 0 2 0.000000 18.045000 36.090000 30.074999
3363 0 2 0.000000 15.038000 36.090000 24.059999
3364 0 2 0.000000 21.052999 36.090000 24.059999
3365 0 2 0.000000 12.030000 39.082001 30.074999
3366 0 2 0.000000 12.030000 45.128002 30.074999
3367 0 2 0.000000 18.045000 42.104996 27.052000
3368 0 2 0.000000 18.045000 42.104996 33.098000
3369 0 2 0.000000 12.030000 30.074999 36.090000
3370 0 2 0.000000 18.045000 24.059999 42.104996
3371 0 2 0.000000 15.038000 24.059999 36.090000
3372 0 2 0.000000 21.052999 24.059999 36.090000
3373 0 2 0.000000 12.030000 27.052000 42.104996
3374 0 2 0.000000 12.030000 33.098000 42.104996
3375 0 2 0.000000 18.045000 30.074999 39.082001
3376 0 2 0.000000 18.045000 30.074999 45.128002
3377 0 2 0.000000 0.000000 42.104996 36.090000
3378 0 2 0.000000 6.015000 36.090000 42.104996
3379 0 2 0.000000 3.008000 36.090000 36.090000
3380 0 2 0.000000 9.023000 36.090000 36.090000
3381 0 2 0.000000 0.000000 39.082001 42.104996
3382 0 2 0.000000 0.000000 45.128002 42.104996
3383 0 2 0.000000 6.015000 42.104996 39.082001
3384 0 2 0.000000 6.015000 42.104996 45.128002
3385 0 2 0.000000 12.030000 42.104996 36.090000
3386 0 2 0.000000 18.045000 36.090000 42.104996
3387 0 2 0.000000 15.038000 36.090000 36.090000
3388 0 2 0.000000 21.052999 36.090000 36.090000
3389 0 2 0.000000 12.030000 39.082001 42.104996
3390 0 2 0.000000 12.030000 45.128002 42.104996
3391 0 2 0.000000 18.045000 42.104996 39.082001
3392 0 2 0.000000 18.045000 42.104996 45.128002
3393 0 2 0.000000 36.090000 30.074999 24.059999
3394 0 2 0.000000 42.104996 24.059999 30.074999
3395 0 2 0.000000 39.098000 24.059999 24.059999
3396 0 2 0.000000 45.112999 24.059999 24.059999
3397 0 2 0.000000 36.090000 27.052000 30.074999
3398 0 2 0.000000 36.090000 33.098000 30.074999
3399 0 2 0.000000 42.104996 30.074999 27.052000
3400 0 2 0.000000 42.104996 30.074999 33.098000
3401 0 2 0.000000 24.059999 42.104996 24.059999
3402 0 2 0.000000 30.074999 36.090000 30.074999
3403 0 2 0.000000 27.068001 36.090000 24.059999
3404 0 2 0.000000 33.083000 36.090000 24.059999
3405 0 2 0.000000 24.059999 39.082001 30.074999
3406 0 2 0.000000 24.059999 45.128002 30.074999
3407 0 2 0.000000 30.074999 42.104996 27.052000
3408 0 2 0.000000 30.074999 42.104996 33.098000
3409 0 2 0.000000 24.059999 30.074999 24.059999
3410 0 2 0.000000 30.074999 24.059999 30.074999
3411 0 2 0.000000 27.068001 24.059999 24.059999
3412 0 2 0.000000 33.083000 24.059999 24.059999
3413 0 2 0.000000 24.059999 27.052000 30.074999
3414 0 2 0.000000 24.059999 33.098000 30.074999
3415 0 2 0.000000 30.074999 30.074999 27.052000
3416 0 2 0.000000 30.074999 30.074999 33.098000
3417 0 2 0.000000 24.059999 30.074999 36.090000
3418 0 2 0.000000 30.074999 24.059999 42.104996
3419 0 2 0.000000 27.068001 24.059999 36.090000
3420 0 2 0.000000 33.083000 24.059999 36.090000
3421 0 2 0.000000 24.059999 27.052000 42.104996
3422 0 2 0.000000 24.059999 33.098000 42.104996
3423 0 2 0.000000 30.074999 30.074999 39.082001
3424 0 2 0.000000 30.074999 30.074999 45.128002
3425 0 2 0.000000 36.090000 42.104996 24.059999
3426 0 2 0.000000 42.104996 36.090000 30.074999
3427 0 2 0.000000 39.098000 36.090000 24.059999
3428 0 2 0.000000 45.112999 36.090000 24.059999
3429 0 2 0.000000 36.090000 39.082001 30.074999
3430 0 2 0.000000 36.090000 45.128002 30.074999
3431 0 2 0.000000 42.104996 42.104996 27.052000
3432 0 2 0.000000 42.104996 42.104996 33.098000
3433 0 2 0.000000 36.090000 30.074999 36.090000
3434 0 2 0.000000 42.104996 24.059999 42.104996
3435 0 2 0.000000 39.098000 24.059999 36.090000
3436 0 2 0.000000 45.112999 24.059999 36.090000
3437 0 2 0.000000 36.090000 27.052000 42.104996
3438 0 2 0.000000 36.090000 33.098000 42.104996
3439 0 2 0.000000 42.104996 30.074999 39.082001
3440 0 2 0.000000 42.104996 30.074999 45.128002
3441 0 2 0.000000 24.059999 42.104996 36.090000
3442 0 2 0.000000 30.074999 36.090000 42.104996
3443 0 2 0.000000 27.068001 36.090000 36.090000
3444 0 2 0.000000 33.083000 36.090000 36.090000
3445 0 2 0.000000 24.059999 39.082001 42.104996
3446 0 2 0.000000 24.059999 45.128002 42.104996
3447 0 2 0.000000 30.074999 42.104996 39.082001
3448 0 2 0.000000 30.074999 42.104996 45.128002
3449 0 2 0.000000 36.090000 42.104996 36.090000
3450 0 2 0.000000 42.104996 36.090000 42.104996
3451 0 2 0.000000 39.098000 36.090000 36.090000
3452 0 2 0.000000 45.112999 36.090000 36.090000
3453 0 2 0.000000 36.090000 39.082001 42.104996
3454 0 2 0.000000 36.090000 45.128002 42.104996
3455 0 2 0.000000 42.104996 42.104996 39.082001
3456 0 2 0.000000 42.104996 42.104996 45.128002
