LAMMPS data file. CGCMM style. atom_style full generated by VMD/TopoTools v1.8 on Mon Aug 04 22:12:37 CDT 2025
 3456 atoms
 0 bonds
 0 angles
 0 dihedrals
 0 impropers
 2 atom types
 0 bond types
 0 angle types
 0 dihedral types
 0 improper types
 0.056824 47.106823  xlo xhi
 0.022193 47.072192  ylo yhi
 0.114960 47.164959  zlo zhi

# Pair Coeffs
#
# 1  1
# 2  2

 Masses

 1 18.014999 # 1
 2 44.008999 # 2

 Atoms # full

1 1 1 0.000000 12.047800 0.474708 3.265100 # 1 UNK
2 1 1 0.000000 11.989300 2.781060 1.745070 # 1 UNK
3 1 1 0.000000 12.185000 2.710990 10.831600 # 1 UNK
4 1 1 0.000000 12.146900 10.049800 1.415400 # 1 UNK
5 1 1 0.000000 12.246200 10.111600 10.829200 # 1 UNK
6 1 1 0.000000 17.909000 9.388450 0.098437 # 1 UNK
7 1 1 0.000000 18.027000 1.898850 2.507910 # 1 UNK
8 1 1 0.000000 18.001600 11.014200 2.345590 # 1 UNK
9 1 1 0.000000 18.106199 1.861170 9.896730 # 1 UNK
10 1 1 0.000000 18.112499 10.961000 9.806590 # 1 UNK
11 1 1 0.000000 15.854600 4.741300 0.139520 # 1 UNK
12 1 1 0.000000 14.365500 0.499310 7.568880 # 1 UNK
13 1 1 0.000000 14.304000 4.164920 2.370740 # 1 UNK
14 1 1 0.000000 14.334000 4.253940 10.000200 # 1 UNK
15 1 1 0.000000 14.342100 8.513700 2.226080 # 1 UNK
16 1 1 0.000000 14.400300 8.607500 9.940970 # 1 UNK
17 1 1 0.000000 15.872400 2.677060 4.072720 # 1 UNK
18 1 1 0.000000 15.860700 10.130500 3.869980 # 1 UNK
19 1 1 0.000000 15.901700 2.647570 8.405590 # 1 UNK
20 1 1 0.000000 15.936500 10.178000 8.275690 # 1 UNK
21 1 1 0.000000 19.928600 5.318770 0.430391 # 1 UNK
22 1 1 0.000000 21.768801 0.478509 7.528290 # 1 UNK
23 1 1 0.000000 21.664801 4.298250 2.323610 # 1 UNK
24 1 1 0.000000 21.817699 4.264360 9.972690 # 1 UNK
25 1 1 0.000000 21.779900 8.590020 2.231920 # 1 UNK
26 1 1 0.000000 21.851999 8.617380 9.929110 # 1 UNK
27 1 1 0.000000 20.199600 2.703590 4.039100 # 1 UNK
28 1 1 0.000000 20.196400 10.181100 3.851490 # 1 UNK
29 1 1 0.000000 20.266800 2.663180 8.353460 # 1 UNK
30 1 1 0.000000 20.281200 10.162700 8.271180 # 1 UNK
31 1 1 0.000000 15.064900 6.444480 6.143190 # 1 UNK
32 1 1 0.000000 21.085100 6.433270 6.096750 # 1 UNK
33 1 1 0.000000 13.554600 6.422970 8.455060 # 1 UNK
34 1 1 0.000000 22.604000 6.418490 8.411180 # 1 UNK
35 1 1 0.000000 13.569400 6.398120 3.829000 # 1 UNK
36 1 1 0.000000 22.628700 6.441990 3.794960 # 1 UNK
37 1 1 0.000000 16.667101 4.203180 6.244280 # 1 UNK
38 1 1 0.000000 19.432501 4.226930 6.219110 # 1 UNK
39 1 1 0.000000 16.698200 8.672090 6.071970 # 1 UNK
40 1 1 0.000000 19.471500 8.679520 6.066880 # 1 UNK
41 1 1 0.000000 0.497673 12.250500 9.383190 # 1 UNK
42 1 1 0.000000 2.743680 12.302400 4.963240 # 1 UNK
43 1 1 0.000000 10.083500 12.395400 4.823740 # 1 UNK
44 1 1 0.000000 0.694524 21.831400 1.575030 # 1 UNK
45 1 1 0.000000 0.556458 21.931601 10.979500 # 1 UNK
46 1 1 0.000000 6.085030 21.209999 0.078533 # 1 UNK
47 1 1 0.000000 6.369940 13.688400 2.577890 # 1 UNK
48 1 1 0.000000 6.311600 22.663000 2.432740 # 1 UNK
49 1 1 0.000000 6.387020 13.678100 10.022200 # 1 UNK
50 1 1 0.000000 6.378020 22.738400 10.011500 # 1 UNK
51 1 1 0.000000 4.337250 16.623199 0.238116 # 1 UNK
52 1 1 0.000000 2.708240 12.283700 7.731110 # 1 UNK
53 1 1 0.000000 2.840470 16.134800 2.492590 # 1 UNK
54 1 1 0.000000 2.710080 16.073700 10.154100 # 1 UNK
55 1 1 0.000000 2.840760 20.229099 2.281000 # 1 UNK
56 1 1 0.000000 2.741310 20.425699 10.176700 # 1 UNK
57 1 1 0.000000 4.255780 14.483600 4.174270 # 1 UNK
58 1 1 0.000000 4.190910 21.883200 4.029930 # 1 UNK
59 1 1 0.000000 4.219500 14.482700 8.488030 # 1 UNK
60 1 1 0.000000 4.229840 21.958200 8.438340 # 1 UNK
61 1 1 0.000000 8.279460 16.788401 0.038197 # 1 UNK
62 1 1 0.000000 10.032900 12.355200 7.602670 # 1 UNK
63 1 1 0.000000 9.883210 16.125200 2.218760 # 1 UNK
64 1 1 0.000000 10.082900 16.083799 10.087600 # 1 UNK
65 1 1 0.000000 9.804340 20.341299 2.170680 # 1 UNK
66 1 1 0.000000 10.066100 20.380600 10.125100 # 1 UNK
67 1 1 0.000000 8.543400 14.562900 4.041790 # 1 UNK
68 1 1 0.000000 8.467510 21.912500 3.994840 # 1 UNK
69 1 1 0.000000 8.518300 14.517500 8.450210 # 1 UNK
70 1 1 0.000000 8.525580 21.935400 8.455140 # 1 UNK
71 1 1 0.000000 3.391970 18.233601 6.291510 # 1 UNK
72 1 1 0.000000 9.427750 18.260599 6.192910 # 1 UNK
73 1 1 0.000000 1.947280 18.266899 8.638110 # 1 UNK
74 1 1 0.000000 10.870900 18.249300 8.545210 # 1 UNK
75 1 1 0.000000 1.892290 18.258400 3.984320 # 1 UNK
76 1 1 0.000000 10.722500 18.267099 3.758570 # 1 UNK
77 1 1 0.000000 5.028370 16.026400 6.327690 # 1 UNK
78 1 1 0.000000 7.787450 16.046600 6.251820 # 1 UNK
79 1 1 0.000000 5.009760 20.454000 6.245010 # 1 UNK
80 1 1 0.000000 7.769500 20.455500 6.239000 # 1 UNK
81 1 1 0.000000 0.505365 10.026700 1.747430 # 1 UNK
82 1 1 0.000000 0.465638 9.991430 10.975200 # 1 UNK
83 1 1 0.000000 6.341260 9.524700 0.243175 # 1 UNK
84 1 1 0.000000 6.111390 1.893330 2.427060 # 1 UNK
85 1 1 0.000000 6.388650 10.906600 2.650260 # 1 UNK
86 1 1 0.000000 6.232750 1.899970 9.946520 # 1 UNK
87 1 1 0.000000 6.379800 10.902600 10.050300 # 1 UNK
88 1 1 0.000000 3.359490 5.100850 0.323331 # 1 UNK
89 1 1 0.000000 2.297170 0.687306 7.959120 # 1 UNK
90 1 1 0.000000 1.899840 3.788110 2.339300 # 1 UNK
91 1 1 0.000000 2.848140 4.308630 10.235100 # 1 UNK
92 1 1 0.000000 2.713840 8.516490 2.441420 # 1 UNK
93 1 1 0.000000 2.674900 8.526690 10.168900 # 1 UNK
94 1 1 0.000000 3.959930 2.795170 3.935840 # 1 UNK
95 1 1 0.000000 4.198910 10.097200 4.145900 # 1 UNK
96 1 1 0.000000 4.120660 2.740980 8.368430 # 1 UNK
97 1 1 0.000000 4.213850 10.099300 8.519130 # 1 UNK
98 1 1 0.000000 8.277590 5.001820 0.308403 # 1 UNK
99 1 1 0.000000 9.863270 0.483062 7.610830 # 1 UNK
100 1 1 0.000000 9.819920 4.298650 2.511190 # 1 UNK
101 1 1 0.000000 9.971780 4.209780 10.089300 # 1 UNK
102 1 1 0.000000 10.048800 8.554900 2.408070 # 1 UNK
103 1 1 0.000000 10.062200 8.555290 10.112300 # 1 UNK
104 1 1 0.000000 8.262800 2.628630 4.056810 # 1 UNK
105 1 1 0.000000 8.607960 10.162400 4.121260 # 1 UNK
106 1 1 0.000000 8.397060 2.698230 8.409990 # 1 UNK
107 1 1 0.000000 8.549100 10.178600 8.482400 # 1 UNK
108 1 1 0.000000 3.172270 6.449610 6.166340 # 1 UNK
109 1 1 0.000000 9.256920 6.396160 6.271250 # 1 UNK
110 1 1 0.000000 1.930150 6.354870 8.625150 # 1 UNK
111 1 1 0.000000 10.787000 6.373670 8.564590 # 1 UNK
112 1 1 0.000000 1.865080 6.213270 3.733200 # 1 UNK
113 1 1 0.000000 10.809300 6.411610 3.990500 # 1 UNK
114 1 1 0.000000 4.823430 4.237110 6.137770 # 1 UNK
115 1 1 0.000000 7.582800 4.206850 6.224840 # 1 UNK
116 1 1 0.000000 4.956070 8.572970 6.325920 # 1 UNK
117 1 1 0.000000 7.727110 8.692020 6.293050 # 1 UNK
118 1 1 0.000000 6.366840 3.268400 12.336500 # 1 UNK
119 1 1 0.000000 4.160920 7.817350 12.395700 # 1 UNK
120 1 1 0.000000 8.593530 7.765710 12.331500 # 1 UNK
121 1 1 0.000000 0.532761 10.009300 13.745400 # 1 UNK
122 1 1 0.000000 0.731670 9.730020 22.907400 # 1 UNK
123 1 1 0.000000 6.394090 9.428160 12.386600 # 1 UNK
124 1 1 0.000000 6.320650 1.893940 14.722700 # 1 UNK
125 1 1 0.000000 6.399970 10.931800 14.703100 # 1 UNK
126 1 1 0.000000 6.622310 2.013430 22.308901 # 1 UNK
127 1 1 0.000000 6.476500 11.070500 22.449800 # 1 UNK
128 1 1 0.000000 4.281400 5.060500 12.475300 # 1 UNK
129 1 1 0.000000 2.521850 0.816431 20.270700 # 1 UNK
130 1 1 0.000000 2.793160 4.235160 14.655700 # 1 UNK
131 1 1 0.000000 2.935040 4.256710 22.698200 # 1 UNK
132 1 1 0.000000 2.705940 8.538460 14.635900 # 1 UNK
133 1 1 0.000000 3.008550 8.351820 22.171801 # 1 UNK
134 1 1 0.000000 4.344030 2.808290 16.423901 # 1 UNK
135 1 1 0.000000 4.275310 10.096200 16.275999 # 1 UNK
136 1 1 0.000000 4.386160 2.788960 20.861000 # 1 UNK
137 1 1 0.000000 4.458680 10.187200 20.728300 # 1 UNK
138 1 1 0.000000 8.521790 4.996570 12.315400 # 1 UNK
139 1 1 0.000000 9.960780 0.472142 19.708799 # 1 UNK
140 1 1 0.000000 10.055200 4.278080 14.513300 # 1 UNK
141 1 1 0.000000 10.321400 4.246970 22.312201 # 1 UNK
142 1 1 0.000000 10.094200 8.617120 14.502700 # 1 UNK
143 1 1 0.000000 10.059700 8.536400 22.303499 # 1 UNK
144 1 1 0.000000 8.544520 2.683900 16.175301 # 1 UNK
145 1 1 0.000000 8.566060 10.121900 16.232599 # 1 UNK
146 1 1 0.000000 8.707490 2.758400 20.655100 # 1 UNK
147 1 1 0.000000 8.465320 10.138100 20.715900 # 1 UNK
148 1 1 0.000000 3.473190 6.396690 18.486300 # 1 UNK
149 1 1 0.000000 9.463740 6.442550 18.403299 # 1 UNK
150 1 1 0.000000 2.067370 6.109050 20.837601 # 1 UNK
151 1 1 0.000000 10.929700 6.425400 20.738899 # 1 UNK
152 1 1 0.000000 1.947980 6.375740 16.189100 # 1 UNK
153 1 1 0.000000 10.883500 6.446590 16.031799 # 1 UNK
154 1 1 0.000000 5.163660 4.236790 18.637400 # 1 UNK
155 1 1 0.000000 7.909590 4.173780 18.419901 # 1 UNK
156 1 1 0.000000 5.059720 8.645100 18.503000 # 1 UNK
157 1 1 0.000000 7.819980 8.652370 18.464100 # 1 UNK
158 1 1 0.000000 23.957701 0.515785 3.161600 # 1 UNK
159 1 1 0.000000 23.750200 2.689000 1.462780 # 1 UNK
160 1 1 0.000000 23.973200 2.705170 10.763200 # 1 UNK
161 1 1 0.000000 12.279700 12.352800 9.204820 # 1 UNK
162 1 1 0.000000 14.378400 12.327400 4.687980 # 1 UNK
163 1 1 0.000000 21.715300 12.328900 4.746880 # 1 UNK
164 1 1 0.000000 12.172900 12.316500 3.015790 # 1 UNK
165 1 1 0.000000 12.092700 14.624100 1.481100 # 1 UNK
166 1 1 0.000000 12.253300 14.550800 10.882500 # 1 UNK
167 1 1 0.000000 12.072100 21.857800 1.747970 # 1 UNK
168 1 1 0.000000 12.238500 21.898399 10.945300 # 1 UNK
169 1 1 0.000000 18.136900 20.983900 0.188491 # 1 UNK
170 1 1 0.000000 18.040100 13.791100 2.521570 # 1 UNK
171 1 1 0.000000 18.084900 22.618099 2.442690 # 1 UNK
172 1 1 0.000000 18.102800 13.733200 9.900540 # 1 UNK
173 1 1 0.000000 18.117500 22.721800 9.951050 # 1 UNK
174 1 1 0.000000 15.741800 16.923800 0.060288 # 1 UNK
175 1 1 0.000000 14.432200 12.368200 7.468720 # 1 UNK
176 1 1 0.000000 14.265500 16.150101 2.285550 # 1 UNK
177 1 1 0.000000 14.426500 16.059799 10.043700 # 1 UNK
178 1 1 0.000000 14.368400 20.403799 2.245280 # 1 UNK
179 1 1 0.000000 14.409700 20.399599 10.086900 # 1 UNK
180 1 1 0.000000 15.810500 14.589300 3.957280 # 1 UNK
181 1 1 0.000000 15.887400 21.911699 3.985580 # 1 UNK
182 1 1 0.000000 15.951400 14.530500 8.332330 # 1 UNK
183 1 1 0.000000 15.957700 21.929899 8.394400 # 1 UNK
184 1 1 0.000000 20.396999 16.701401 0.077691 # 1 UNK
185 1 1 0.000000 21.801701 12.360700 7.522000 # 1 UNK
186 1 1 0.000000 21.856100 16.091801 2.349490 # 1 UNK
187 1 1 0.000000 21.863199 16.069300 10.042900 # 1 UNK
188 1 1 0.000000 21.849701 20.407700 2.266680 # 1 UNK
189 1 1 0.000000 21.845501 20.379499 10.065200 # 1 UNK
190 1 1 0.000000 20.254299 14.568600 4.004610 # 1 UNK
191 1 1 0.000000 20.291000 21.916100 3.977060 # 1 UNK
192 1 1 0.000000 20.288700 14.529000 8.376260 # 1 UNK
193 1 1 0.000000 20.285700 21.934299 8.399280 # 1 UNK
194 1 1 0.000000 15.021300 18.258101 6.134040 # 1 UNK
195 1 1 0.000000 21.155399 18.241400 6.213340 # 1 UNK
196 1 1 0.000000 13.642100 18.239799 8.529310 # 1 UNK
197 1 1 0.000000 22.693300 18.235500 8.513330 # 1 UNK
198 1 1 0.000000 13.490200 18.309200 3.834730 # 1 UNK
199 1 1 0.000000 22.625700 18.278400 3.869430 # 1 UNK
200 1 1 0.000000 16.691900 16.060200 6.133750 # 1 UNK
201 1 1 0.000000 19.463301 16.057800 6.206980 # 1 UNK
202 1 1 0.000000 16.720400 20.438999 6.177670 # 1 UNK
203 1 1 0.000000 19.492599 20.450399 6.190930 # 1 UNK
204 1 1 0.000000 18.100401 3.442310 12.159200 # 1 UNK
205 1 1 0.000000 15.898300 7.868080 12.156500 # 1 UNK
206 1 1 0.000000 20.348301 7.875490 12.141700 # 1 UNK
207 1 1 0.000000 12.118700 0.492739 15.203600 # 1 UNK
208 1 1 0.000000 12.184000 2.748790 13.604500 # 1 UNK
209 1 1 0.000000 12.565200 2.699220 22.862200 # 1 UNK
210 1 1 0.000000 12.215600 10.166000 13.606600 # 1 UNK
211 1 1 0.000000 12.324800 10.036900 22.797600 # 1 UNK
212 1 1 0.000000 18.123100 9.514820 12.162300 # 1 UNK
213 1 1 0.000000 18.107300 1.815860 14.397000 # 1 UNK
214 1 1 0.000000 18.118299 11.037200 14.469200 # 1 UNK
215 1 1 0.000000 18.073400 1.907630 21.587799 # 1 UNK
216 1 1 0.000000 18.182600 10.888400 21.898500 # 1 UNK
217 1 1 0.000000 15.882900 5.091450 12.144000 # 1 UNK
218 1 1 0.000000 14.366200 0.556917 19.446100 # 1 UNK
219 1 1 0.000000 14.367100 4.302070 14.332700 # 1 UNK
220 1 1 0.000000 14.639600 4.360000 22.083500 # 1 UNK
221 1 1 0.000000 14.420500 8.668060 14.362700 # 1 UNK
222 1 1 0.000000 14.554600 8.524480 22.180201 # 1 UNK
223 1 1 0.000000 15.939200 2.673920 15.904500 # 1 UNK
224 1 1 0.000000 15.955000 10.246000 16.016500 # 1 UNK
225 1 1 0.000000 15.867300 2.786290 20.165199 # 1 UNK
226 1 1 0.000000 15.967400 10.116800 20.426300 # 1 UNK
227 1 1 0.000000 20.312500 5.098120 12.150800 # 1 UNK
228 1 1 0.000000 21.772200 0.373669 19.512899 # 1 UNK
229 1 1 0.000000 21.843100 4.267790 14.314600 # 1 UNK
230 1 1 0.000000 21.854601 4.240820 21.835400 # 1 UNK
231 1 1 0.000000 21.867201 8.629660 14.336200 # 1 UNK
232 1 1 0.000000 21.881599 8.530190 21.925501 # 1 UNK
233 1 1 0.000000 20.307199 2.613140 15.895800 # 1 UNK
234 1 1 0.000000 20.308201 10.216000 15.962600 # 1 UNK
235 1 1 0.000000 20.334999 2.649940 20.177601 # 1 UNK
236 1 1 0.000000 20.339800 10.144600 20.311399 # 1 UNK
237 1 1 0.000000 15.137200 6.480940 18.202999 # 1 UNK
238 1 1 0.000000 21.140400 6.442480 18.126499 # 1 UNK
239 1 1 0.000000 13.687300 6.463880 20.544500 # 1 UNK
240 1 1 0.000000 22.746000 6.413240 20.368401 # 1 UNK
241 1 1 0.000000 13.650100 6.485590 15.880400 # 1 UNK
242 1 1 0.000000 22.666901 6.438550 15.831900 # 1 UNK
243 1 1 0.000000 16.770700 4.264910 18.016701 # 1 UNK
244 1 1 0.000000 19.533300 4.202620 18.031900 # 1 UNK
245 1 1 0.000000 16.755100 8.711280 18.181900 # 1 UNK
246 1 1 0.000000 19.517700 8.669780 18.122400 # 1 UNK
247 1 1 0.000000 0.572617 24.079800 9.230870 # 1 UNK
248 1 1 0.000000 2.733900 24.132200 4.730080 # 1 UNK
249 1 1 0.000000 9.967960 24.097500 4.799850 # 1 UNK
250 1 1 0.000000 6.404600 15.168900 12.349600 # 1 UNK
251 1 1 0.000000 4.222170 19.600500 12.371900 # 1 UNK
252 1 1 0.000000 8.621850 19.589199 12.356900 # 1 UNK
253 1 1 0.000000 0.602961 12.081200 21.418400 # 1 UNK
254 1 1 0.000000 2.776810 12.277700 17.103399 # 1 UNK
255 1 1 0.000000 10.035800 12.328800 17.042801 # 1 UNK
256 1 1 0.000000 0.565517 21.833700 13.752700 # 1 UNK
257 1 1 0.000000 0.469124 21.641600 22.819000 # 1 UNK
258 1 1 0.000000 6.426160 21.259300 12.345400 # 1 UNK
259 1 1 0.000000 6.406970 13.702000 14.692500 # 1 UNK
260 1 1 0.000000 6.426370 22.675200 14.717000 # 1 UNK
261 1 1 0.000000 6.437990 13.889100 22.353399 # 1 UNK
262 1 1 0.000000 6.304620 22.692699 22.227600 # 1 UNK
263 1 1 0.000000 4.196360 16.825800 12.373600 # 1 UNK
264 1 1 0.000000 2.881400 12.305200 19.874901 # 1 UNK
265 1 1 0.000000 2.717700 16.049299 14.591000 # 1 UNK
266 1 1 0.000000 2.895550 16.138500 22.485500 # 1 UNK
267 1 1 0.000000 2.721840 20.306601 14.594100 # 1 UNK
268 1 1 0.000000 2.827360 20.251200 22.434799 # 1 UNK
269 1 1 0.000000 4.248220 14.474700 16.258200 # 1 UNK
270 1 1 0.000000 4.279400 21.849100 16.258400 # 1 UNK
271 1 1 0.000000 4.298390 14.549200 20.710400 # 1 UNK
272 1 1 0.000000 4.200240 21.836700 20.652700 # 1 UNK
273 1 1 0.000000 8.614680 16.822300 12.322900 # 1 UNK
274 1 1 0.000000 9.897400 12.337000 19.810400 # 1 UNK
275 1 1 0.000000 10.088600 16.045401 14.541100 # 1 UNK
276 1 1 0.000000 10.104900 16.166901 22.346600 # 1 UNK
277 1 1 0.000000 10.088900 20.344700 14.583500 # 1 UNK
278 1 1 0.000000 10.100400 20.407400 22.612700 # 1 UNK
279 1 1 0.000000 8.547770 14.529700 16.251499 # 1 UNK
280 1 1 0.000000 8.555380 21.862700 16.294100 # 1 UNK
281 1 1 0.000000 8.553610 14.588600 20.713200 # 1 UNK
282 1 1 0.000000 8.545000 21.838200 20.822500 # 1 UNK
283 1 1 0.000000 3.380330 18.181299 18.504200 # 1 UNK
284 1 1 0.000000 9.483140 18.231701 18.506100 # 1 UNK
285 1 1 0.000000 1.933860 18.165800 20.861601 # 1 UNK
286 1 1 0.000000 10.884100 18.378799 20.885099 # 1 UNK
287 1 1 0.000000 1.898530 18.179501 16.170700 # 1 UNK
288 1 1 0.000000 10.881500 18.181000 16.118900 # 1 UNK
289 1 1 0.000000 5.041770 15.980100 18.453800 # 1 UNK
290 1 1 0.000000 7.809240 16.033001 18.467600 # 1 UNK
291 1 1 0.000000 5.055850 20.367001 18.463200 # 1 UNK
292 1 1 0.000000 7.815780 20.426001 18.546200 # 1 UNK
293 1 1 0.000000 24.061800 12.262800 3.281160 # 1 UNK
294 1 1 0.000000 24.116600 14.597900 1.793900 # 1 UNK
295 1 1 0.000000 24.050699 14.557700 10.855600 # 1 UNK
296 1 1 0.000000 12.229300 24.082899 9.247770 # 1 UNK
297 1 1 0.000000 14.375600 24.090900 4.800520 # 1 UNK
298 1 1 0.000000 21.725000 24.143600 4.813000 # 1 UNK
299 1 1 0.000000 18.135799 15.239300 12.224300 # 1 UNK
300 1 1 0.000000 15.886700 19.633801 12.308400 # 1 UNK
301 1 1 0.000000 20.382500 19.616899 12.305100 # 1 UNK
302 1 1 0.000000 12.246800 12.314600 21.246901 # 1 UNK
303 1 1 0.000000 14.445200 12.389800 16.919800 # 1 UNK
304 1 1 0.000000 21.845200 12.358300 16.825800 # 1 UNK
305 1 1 0.000000 12.195200 12.339800 15.321900 # 1 UNK
306 1 1 0.000000 12.247200 14.545400 13.656900 # 1 UNK
307 1 1 0.000000 12.119500 14.407600 23.030500 # 1 UNK
308 1 1 0.000000 12.246800 21.858801 13.722300 # 1 UNK
309 1 1 0.000000 12.337000 21.937799 23.083700 # 1 UNK
310 1 1 0.000000 18.139299 21.232100 12.284000 # 1 UNK
311 1 1 0.000000 18.118900 13.808400 14.586800 # 1 UNK
312 1 1 0.000000 18.165600 22.636299 14.662900 # 1 UNK
313 1 1 0.000000 18.196699 13.677200 22.003300 # 1 UNK
314 1 1 0.000000 18.133801 22.713800 22.230400 # 1 UNK
315 1 1 0.000000 15.900600 16.862900 12.252000 # 1 UNK
316 1 1 0.000000 14.511400 12.352700 19.685200 # 1 UNK
317 1 1 0.000000 14.424800 16.064400 14.461200 # 1 UNK
318 1 1 0.000000 14.361600 15.943400 22.462799 # 1 UNK
319 1 1 0.000000 14.415500 20.339600 14.550500 # 1 UNK
320 1 1 0.000000 14.458600 20.348200 22.277901 # 1 UNK
321 1 1 0.000000 15.980100 14.569800 16.173401 # 1 UNK
322 1 1 0.000000 16.012400 21.839399 16.219400 # 1 UNK
323 1 1 0.000000 15.920600 14.531800 20.656700 # 1 UNK
324 1 1 0.000000 16.017900 21.896000 20.613001 # 1 UNK
325 1 1 0.000000 20.384199 16.843901 12.268500 # 1 UNK
326 1 1 0.000000 21.911900 12.322700 19.596001 # 1 UNK
327 1 1 0.000000 21.892700 16.094601 14.477300 # 1 UNK
328 1 1 0.000000 22.082800 15.863900 22.189501 # 1 UNK
329 1 1 0.000000 21.893900 20.337299 14.520000 # 1 UNK
330 1 1 0.000000 21.832100 20.327700 22.416401 # 1 UNK
331 1 1 0.000000 20.305300 14.556900 16.123600 # 1 UNK
332 1 1 0.000000 20.316000 21.826000 16.221800 # 1 UNK
333 1 1 0.000000 20.395201 14.476800 20.494900 # 1 UNK
334 1 1 0.000000 20.281099 21.838301 20.681101 # 1 UNK
335 1 1 0.000000 15.041700 18.163300 18.484200 # 1 UNK
336 1 1 0.000000 21.221100 18.177900 18.419500 # 1 UNK
337 1 1 0.000000 13.644500 18.107500 20.875299 # 1 UNK
338 1 1 0.000000 22.648500 18.203600 20.794901 # 1 UNK
339 1 1 0.000000 13.653800 18.165800 16.092100 # 1 UNK
340 1 1 0.000000 22.719400 18.200300 16.089500 # 1 UNK
341 1 1 0.000000 16.741600 15.982200 18.437599 # 1 UNK
342 1 1 0.000000 19.514999 16.005501 18.357000 # 1 UNK
343 1 1 0.000000 16.749500 20.342300 18.440599 # 1 UNK
344 1 1 0.000000 19.523399 20.361300 18.450600 # 1 UNK
345 1 1 0.000000 6.780910 3.273080 24.794800 # 1 UNK
346 1 1 0.000000 4.647920 7.435510 24.236200 # 1 UNK
347 1 1 0.000000 9.077730 7.998250 24.844601 # 1 UNK
348 1 1 0.000000 24.028099 0.452845 15.139000 # 1 UNK
349 1 1 0.000000 24.008200 2.712370 13.538800 # 1 UNK
350 1 1 0.000000 24.062901 2.739520 22.551800 # 1 UNK
351 1 1 0.000000 18.286600 3.553990 23.785500 # 1 UNK
352 1 1 0.000000 15.969700 7.837230 24.480600 # 1 UNK
353 1 1 0.000000 20.299700 7.691200 24.023500 # 1 UNK
354 1 1 0.000000 0.553902 23.985500 21.355499 # 1 UNK
355 1 1 0.000000 2.783660 24.068701 16.956800 # 1 UNK
356 1 1 0.000000 10.064700 24.056999 17.066200 # 1 UNK
357 1 1 0.000000 6.495920 15.359100 24.761801 # 1 UNK
358 1 1 0.000000 4.442760 19.623400 24.601299 # 1 UNK
359 1 1 0.000000 8.564510 19.661699 24.785900 # 1 UNK
360 1 1 0.000000 24.103901 12.343000 15.240800 # 1 UNK
361 1 1 0.000000 24.070299 14.590000 13.633900 # 1 UNK
362 1 1 0.000000 24.378201 14.477800 22.942801 # 1 UNK
363 1 1 0.000000 12.248400 24.063700 21.288700 # 1 UNK
364 1 1 0.000000 14.529500 24.076099 16.913601 # 1 UNK
365 1 1 0.000000 21.845800 24.041901 16.910299 # 1 UNK
366 1 1 0.000000 17.974600 15.169900 24.343500 # 1 UNK
367 1 1 0.000000 15.589400 19.732300 24.731400 # 1 UNK
368 1 1 0.000000 20.130400 19.309799 24.366501 # 1 UNK
369 1 1 0.000000 35.929798 0.492914 3.365780 # 1 UNK
370 1 1 0.000000 35.918400 2.760740 1.765040 # 1 UNK
371 1 1 0.000000 36.027302 2.697140 10.766300 # 1 UNK
372 1 1 0.000000 36.046101 10.082600 1.669140 # 1 UNK
373 1 1 0.000000 35.971802 9.988100 10.842800 # 1 UNK
374 1 1 0.000000 41.927299 9.474360 0.248769 # 1 UNK
375 1 1 0.000000 41.920300 1.830760 2.397850 # 1 UNK
376 1 1 0.000000 41.834999 11.083400 2.518250 # 1 UNK
377 1 1 0.000000 42.116199 1.804620 9.871290 # 1 UNK
378 1 1 0.000000 41.883301 10.879500 10.025700 # 1 UNK
379 1 1 0.000000 39.490398 4.947920 0.220759 # 1 UNK
380 1 1 0.000000 38.286201 0.487799 7.541690 # 1 UNK
381 1 1 0.000000 38.135700 4.232530 2.537270 # 1 UNK
382 1 1 0.000000 38.271500 4.154450 10.021900 # 1 UNK
383 1 1 0.000000 38.214001 8.538760 2.480370 # 1 UNK
384 1 1 0.000000 38.152500 8.477580 10.033100 # 1 UNK
385 1 1 0.000000 39.820301 2.644960 4.038110 # 1 UNK
386 1 1 0.000000 39.749802 10.153600 4.103040 # 1 UNK
387 1 1 0.000000 39.879700 2.589140 8.416850 # 1 UNK
388 1 1 0.000000 39.702702 10.134400 8.470840 # 1 UNK
389 1 1 0.000000 43.977699 4.872730 46.951099 # 1 UNK
390 1 1 0.000000 45.592899 0.152495 7.021370 # 1 UNK
391 1 1 0.000000 45.652401 4.023760 1.957380 # 1 UNK
392 1 1 0.000000 45.910500 3.728780 10.088000 # 1 UNK
393 1 1 0.000000 45.340099 8.497340 2.363950 # 1 UNK
394 1 1 0.000000 45.474098 8.338240 10.080400 # 1 UNK
395 1 1 0.000000 44.144699 2.653900 3.833780 # 1 UNK
396 1 1 0.000000 43.888000 10.075500 4.097180 # 1 UNK
397 1 1 0.000000 44.400002 2.263750 8.341670 # 1 UNK
398 1 1 0.000000 43.986401 9.989390 8.446190 # 1 UNK
399 1 1 0.000000 39.029800 6.279860 6.241720 # 1 UNK
400 1 1 0.000000 44.931499 6.244480 6.171740 # 1 UNK
401 1 1 0.000000 37.415901 6.300240 8.484500 # 1 UNK
402 1 1 0.000000 46.220798 6.090200 8.625870 # 1 UNK
403 1 1 0.000000 37.361900 6.413790 4.047210 # 1 UNK
404 1 1 0.000000 46.131599 6.184150 3.668670 # 1 UNK
405 1 1 0.000000 40.713799 4.088510 6.230940 # 1 UNK
406 1 1 0.000000 43.490898 3.874660 6.241920 # 1 UNK
407 1 1 0.000000 40.484901 8.621140 6.284630 # 1 UNK
408 1 1 0.000000 43.252201 8.453570 6.248870 # 1 UNK
409 1 1 0.000000 24.037100 12.371900 9.157770 # 1 UNK
410 1 1 0.000000 26.343100 12.233800 4.854140 # 1 UNK
411 1 1 0.000000 33.746201 12.331400 4.906010 # 1 UNK
412 1 1 0.000000 24.104601 21.957500 1.810110 # 1 UNK
413 1 1 0.000000 24.048700 21.861799 10.888400 # 1 UNK
414 1 1 0.000000 30.079100 21.060900 0.562840 # 1 UNK
415 1 1 0.000000 30.047800 13.783100 2.589450 # 1 UNK
416 1 1 0.000000 30.040400 22.823500 2.686280 # 1 UNK
417 1 1 0.000000 30.063101 13.663000 10.000800 # 1 UNK
418 1 1 0.000000 30.071800 22.738501 10.065200 # 1 UNK
419 1 1 0.000000 27.526400 17.058800 0.404017 # 1 UNK
420 1 1 0.000000 26.338800 12.305900 7.628590 # 1 UNK
421 1 1 0.000000 26.243700 16.148199 2.678130 # 1 UNK
422 1 1 0.000000 26.280500 16.045300 10.125800 # 1 UNK
423 1 1 0.000000 26.318899 20.461500 2.528280 # 1 UNK
424 1 1 0.000000 26.281500 20.376699 10.152500 # 1 UNK
425 1 1 0.000000 27.852100 14.470100 4.158310 # 1 UNK
426 1 1 0.000000 27.869801 21.999599 4.214200 # 1 UNK
427 1 1 0.000000 27.856199 14.457400 8.509040 # 1 UNK
428 1 1 0.000000 27.878700 21.954700 8.554370 # 1 UNK
429 1 1 0.000000 32.279301 16.805401 0.264355 # 1 UNK
430 1 1 0.000000 33.720402 12.265700 7.678190 # 1 UNK
431 1 1 0.000000 33.897598 16.000000 2.368480 # 1 UNK
432 1 1 0.000000 33.835999 16.020901 10.106800 # 1 UNK
433 1 1 0.000000 33.835300 20.419399 2.642640 # 1 UNK
434 1 1 0.000000 33.797699 20.402100 10.133700 # 1 UNK
435 1 1 0.000000 32.273102 14.544000 4.081330 # 1 UNK
436 1 1 0.000000 32.210300 21.997801 4.213900 # 1 UNK
437 1 1 0.000000 32.238098 14.473400 8.476470 # 1 UNK
438 1 1 0.000000 32.233898 21.979200 8.504780 # 1 UNK
439 1 1 0.000000 27.025101 18.214600 6.323910 # 1 UNK
440 1 1 0.000000 33.102200 18.216999 6.230030 # 1 UNK
441 1 1 0.000000 25.468300 18.220900 8.608760 # 1 UNK
442 1 1 0.000000 34.549099 18.227600 8.590150 # 1 UNK
443 1 1 0.000000 25.387600 18.366699 4.092290 # 1 UNK
444 1 1 0.000000 34.699200 18.140900 3.961160 # 1 UNK
445 1 1 0.000000 28.666201 15.985400 6.339380 # 1 UNK
446 1 1 0.000000 31.444201 15.998600 6.297240 # 1 UNK
447 1 1 0.000000 28.659100 20.441799 6.367400 # 1 UNK
448 1 1 0.000000 31.432501 20.422100 6.354030 # 1 UNK
449 1 1 0.000000 24.102100 10.012400 1.672040 # 1 UNK
450 1 1 0.000000 24.027100 10.124200 10.773700 # 1 UNK
451 1 1 0.000000 29.972900 9.260180 0.337670 # 1 UNK
452 1 1 0.000000 29.907801 1.792380 2.561670 # 1 UNK
453 1 1 0.000000 30.019800 10.970800 2.551610 # 1 UNK
454 1 1 0.000000 29.903400 1.829860 9.899190 # 1 UNK
455 1 1 0.000000 30.000099 10.889800 9.906970 # 1 UNK
456 1 1 0.000000 27.515900 4.595390 47.005901 # 1 UNK
457 1 1 0.000000 26.230400 0.441614 7.544280 # 1 UNK
458 1 1 0.000000 26.037100 4.070820 2.240600 # 1 UNK
459 1 1 0.000000 26.142099 4.252420 9.982150 # 1 UNK
460 1 1 0.000000 26.347000 8.446940 2.156050 # 1 UNK
461 1 1 0.000000 26.185301 8.569890 9.971480 # 1 UNK
462 1 1 0.000000 27.663700 2.636350 3.968770 # 1 UNK
463 1 1 0.000000 27.785601 10.028100 3.940410 # 1 UNK
464 1 1 0.000000 27.709200 2.631330 8.394770 # 1 UNK
465 1 1 0.000000 27.831200 10.088600 8.365040 # 1 UNK
466 1 1 0.000000 32.160500 5.063710 0.355907 # 1 UNK
467 1 1 0.000000 33.643101 0.440169 7.641480 # 1 UNK
468 1 1 0.000000 33.672298 4.198930 2.517420 # 1 UNK
469 1 1 0.000000 33.814999 4.178970 9.965090 # 1 UNK
470 1 1 0.000000 33.915798 8.610990 2.661240 # 1 UNK
471 1 1 0.000000 33.791698 8.496500 9.987230 # 1 UNK
472 1 1 0.000000 32.067101 2.615920 4.104240 # 1 UNK
473 1 1 0.000000 32.176498 10.167500 4.122040 # 1 UNK
474 1 1 0.000000 32.124001 2.624980 8.430190 # 1 UNK
475 1 1 0.000000 32.179298 10.069900 8.398920 # 1 UNK
476 1 1 0.000000 26.866100 6.356120 6.081280 # 1 UNK
477 1 1 0.000000 32.941700 6.331690 6.259030 # 1 UNK
478 1 1 0.000000 25.383101 6.415260 8.415230 # 1 UNK
479 1 1 0.000000 34.642601 6.349840 8.441640 # 1 UNK
480 1 1 0.000000 25.408100 6.338060 3.727390 # 1 UNK
481 1 1 0.000000 34.597801 6.315320 4.047550 # 1 UNK
482 1 1 0.000000 28.477600 4.107340 6.173570 # 1 UNK
483 1 1 0.000000 31.253201 4.140220 6.275110 # 1 UNK
484 1 1 0.000000 28.547600 8.553230 6.165200 # 1 UNK
485 1 1 0.000000 31.319500 8.567640 6.224480 # 1 UNK
486 1 1 0.000000 29.949499 3.453280 12.136900 # 1 UNK
487 1 1 0.000000 27.703899 7.827240 12.175800 # 1 UNK
488 1 1 0.000000 32.240601 7.740140 12.160700 # 1 UNK
489 1 1 0.000000 24.054899 10.147100 13.552500 # 1 UNK
490 1 1 0.000000 24.114300 9.977600 22.651899 # 1 UNK
491 1 1 0.000000 30.003000 9.367900 12.213900 # 1 UNK
492 1 1 0.000000 29.975500 1.859000 14.392500 # 1 UNK
493 1 1 0.000000 30.059601 10.930600 14.497700 # 1 UNK
494 1 1 0.000000 30.075199 1.803760 21.719101 # 1 UNK
495 1 1 0.000000 30.004000 10.899300 21.929100 # 1 UNK
496 1 1 0.000000 27.687599 5.047240 12.151500 # 1 UNK
497 1 1 0.000000 26.298300 0.451822 19.476200 # 1 UNK
498 1 1 0.000000 26.183201 4.240190 14.338100 # 1 UNK
499 1 1 0.000000 26.339300 4.186690 21.925600 # 1 UNK
500 1 1 0.000000 26.212400 8.603400 14.381100 # 1 UNK
501 1 1 0.000000 26.347900 8.484810 21.999599 # 1 UNK
502 1 1 0.000000 27.783100 2.635200 15.906600 # 1 UNK
503 1 1 0.000000 27.852600 10.136100 15.984500 # 1 UNK
504 1 1 0.000000 27.859600 2.611360 20.250299 # 1 UNK
505 1 1 0.000000 27.862499 10.090200 20.339701 # 1 UNK
506 1 1 0.000000 32.264198 4.964420 12.127800 # 1 UNK
507 1 1 0.000000 33.723499 0.339693 19.382999 # 1 UNK
508 1 1 0.000000 33.787399 4.208220 14.325000 # 1 UNK
509 1 1 0.000000 33.768501 4.011020 22.105200 # 1 UNK
510 1 1 0.000000 33.735001 8.479040 14.384300 # 1 UNK
511 1 1 0.000000 33.563202 8.338960 22.110001 # 1 UNK
512 1 1 0.000000 32.175999 2.622380 15.902300 # 1 UNK
513 1 1 0.000000 32.206699 10.074600 16.038601 # 1 UNK
514 1 1 0.000000 32.304100 2.566050 20.258301 # 1 UNK
515 1 1 0.000000 32.176899 10.030100 20.422701 # 1 UNK
516 1 1 0.000000 27.031401 6.361160 18.139200 # 1 UNK
517 1 1 0.000000 33.051601 6.329640 18.238001 # 1 UNK
518 1 1 0.000000 25.506500 6.363100 20.436600 # 1 UNK
519 1 1 0.000000 34.506901 6.214880 20.591400 # 1 UNK
520 1 1 0.000000 25.433001 6.411560 15.890100 # 1 UNK
521 1 1 0.000000 34.573299 6.331490 15.931400 # 1 UNK
522 1 1 0.000000 28.654400 4.128220 18.075600 # 1 UNK
523 1 1 0.000000 31.423201 4.102980 18.122200 # 1 UNK
524 1 1 0.000000 28.645201 8.597710 18.150299 # 1 UNK
525 1 1 0.000000 31.409700 8.548740 18.215700 # 1 UNK
526 1 1 0.000000 1.143360 46.502499 3.476550 # 1 UNK
527 1 1 0.000000 0.077234 1.651890 2.144820 # 1 UNK
528 1 1 0.000000 1.028120 2.538230 11.328600 # 1 UNK
529 1 1 0.000000 35.990299 12.254000 9.255230 # 1 UNK
530 1 1 0.000000 38.288300 12.394100 4.848750 # 1 UNK
531 1 1 0.000000 45.285801 12.335100 4.874970 # 1 UNK
532 1 1 0.000000 36.007999 12.330800 3.298940 # 1 UNK
533 1 1 0.000000 36.159901 14.548800 1.648120 # 1 UNK
534 1 1 0.000000 36.030899 14.500100 10.877700 # 1 UNK
535 1 1 0.000000 35.956402 21.917400 1.675900 # 1 UNK
536 1 1 0.000000 35.975300 21.932699 10.927700 # 1 UNK
537 1 1 0.000000 41.884102 21.857599 46.886600 # 1 UNK
538 1 1 0.000000 41.807400 13.875600 2.398850 # 1 UNK
539 1 1 0.000000 41.831699 22.841400 2.442860 # 1 UNK
540 1 1 0.000000 41.832001 13.656800 9.957450 # 1 UNK
541 1 1 0.000000 41.834099 22.764099 9.978660 # 1 UNK
542 1 1 0.000000 39.663898 17.200199 46.837502 # 1 UNK
543 1 1 0.000000 38.216801 12.324300 7.625010 # 1 UNK
544 1 1 0.000000 38.342800 16.205601 2.055610 # 1 UNK
545 1 1 0.000000 38.149899 16.092501 10.052000 # 1 UNK
546 1 1 0.000000 38.230701 20.444000 2.251660 # 1 UNK
547 1 1 0.000000 38.122501 20.387501 10.080400 # 1 UNK
548 1 1 0.000000 39.639301 14.649500 3.947680 # 1 UNK
549 1 1 0.000000 39.703999 21.980400 4.002480 # 1 UNK
550 1 1 0.000000 39.709099 14.535200 8.394240 # 1 UNK
551 1 1 0.000000 39.663399 21.976700 8.439890 # 1 UNK
552 1 1 0.000000 43.668598 17.368900 0.209186 # 1 UNK
553 1 1 0.000000 45.403400 12.238100 7.642470 # 1 UNK
554 1 1 0.000000 45.277401 16.295401 2.171650 # 1 UNK
555 1 1 0.000000 45.484798 16.066401 10.097000 # 1 UNK
556 1 1 0.000000 45.449600 20.473301 2.287420 # 1 UNK
557 1 1 0.000000 45.445599 20.402500 10.142800 # 1 UNK
558 1 1 0.000000 43.988800 14.609800 3.950630 # 1 UNK
559 1 1 0.000000 43.967201 22.033001 4.003450 # 1 UNK
560 1 1 0.000000 43.975700 14.497100 8.401810 # 1 UNK
561 1 1 0.000000 43.989300 21.980900 8.416060 # 1 UNK
562 1 1 0.000000 38.795898 18.278601 6.163620 # 1 UNK
563 1 1 0.000000 44.771099 18.284201 6.224190 # 1 UNK
564 1 1 0.000000 37.323601 18.245800 8.507540 # 1 UNK
565 1 1 0.000000 46.230900 18.261200 8.566390 # 1 UNK
566 1 1 0.000000 37.463402 18.236799 3.744380 # 1 UNK
567 1 1 0.000000 46.178200 18.308500 3.854780 # 1 UNK
568 1 1 0.000000 40.440201 16.062201 6.191260 # 1 UNK
569 1 1 0.000000 43.203800 16.016701 6.205780 # 1 UNK
570 1 1 0.000000 40.428600 20.497499 6.220860 # 1 UNK
571 1 1 0.000000 43.190102 20.533400 6.191940 # 1 UNK
572 1 1 0.000000 41.989498 3.263740 12.225400 # 1 UNK
573 1 1 0.000000 39.639500 7.687400 12.234400 # 1 UNK
574 1 1 0.000000 44.038898 7.450670 12.290300 # 1 UNK
575 1 1 0.000000 36.001701 0.469508 15.139600 # 1 UNK
576 1 1 0.000000 36.007900 2.727460 13.543400 # 1 UNK
577 1 1 0.000000 36.042000 2.517850 22.648701 # 1 UNK
578 1 1 0.000000 35.939602 9.989760 13.620700 # 1 UNK
579 1 1 0.000000 35.719299 9.873630 22.928400 # 1 UNK
580 1 1 0.000000 41.925800 9.249040 12.271300 # 1 UNK
581 1 1 0.000000 41.949299 1.881070 14.625300 # 1 UNK
582 1 1 0.000000 41.839901 10.802600 14.568100 # 1 UNK
583 1 1 0.000000 42.121101 1.816690 21.974001 # 1 UNK
584 1 1 0.000000 41.750999 10.750900 22.094500 # 1 UNK
585 1 1 0.000000 39.765202 4.911160 12.236300 # 1 UNK
586 1 1 0.000000 38.381599 0.454361 19.563299 # 1 UNK
587 1 1 0.000000 38.211300 4.176090 14.420100 # 1 UNK
588 1 1 0.000000 38.201099 4.122080 22.000000 # 1 UNK
589 1 1 0.000000 38.120300 8.473610 14.419800 # 1 UNK
590 1 1 0.000000 37.949799 8.440100 22.117300 # 1 UNK
591 1 1 0.000000 39.764702 2.670400 16.130899 # 1 UNK
592 1 1 0.000000 39.619400 10.089600 16.070101 # 1 UNK
593 1 1 0.000000 39.913399 2.605590 20.445400 # 1 UNK
594 1 1 0.000000 39.567001 10.029300 20.537901 # 1 UNK
595 1 1 0.000000 44.368698 4.676970 12.228500 # 1 UNK
596 1 1 0.000000 45.674801 0.023968 19.416901 # 1 UNK
597 1 1 0.000000 45.721401 4.005460 14.560300 # 1 UNK
598 1 1 0.000000 45.975101 3.785360 22.253799 # 1 UNK
599 1 1 0.000000 45.453999 8.393690 14.490100 # 1 UNK
600 1 1 0.000000 45.515400 8.342400 22.148199 # 1 UNK
601 1 1 0.000000 44.161999 2.434470 16.207300 # 1 UNK
602 1 1 0.000000 43.931999 9.950900 16.177999 # 1 UNK
603 1 1 0.000000 44.500702 2.216660 20.578501 # 1 UNK
604 1 1 0.000000 43.907700 9.916190 20.540100 # 1 UNK
605 1 1 0.000000 38.899601 6.257490 18.260599 # 1 UNK
606 1 1 0.000000 44.808800 6.225020 18.459101 # 1 UNK
607 1 1 0.000000 37.281601 6.276490 20.510799 # 1 UNK
608 1 1 0.000000 46.352600 6.091570 20.750500 # 1 UNK
609 1 1 0.000000 37.347301 6.310240 15.970200 # 1 UNK
610 1 1 0.000000 46.231400 6.266910 16.083599 # 1 UNK
611 1 1 0.000000 40.707600 4.152770 18.284599 # 1 UNK
612 1 1 0.000000 43.468102 3.807580 18.524500 # 1 UNK
613 1 1 0.000000 40.351398 8.607520 18.287001 # 1 UNK
614 1 1 0.000000 43.123001 8.416880 18.343500 # 1 UNK
615 1 1 0.000000 24.042801 24.082001 9.231050 # 1 UNK
616 1 1 0.000000 26.368000 24.209700 4.970050 # 1 UNK
617 1 1 0.000000 33.730499 24.204901 4.929580 # 1 UNK
618 1 1 0.000000 30.081301 15.217200 12.288600 # 1 UNK
619 1 1 0.000000 27.806000 19.583200 12.336800 # 1 UNK
620 1 1 0.000000 32.327301 19.578300 12.338000 # 1 UNK
621 1 1 0.000000 24.184401 12.330800 21.189600 # 1 UNK
622 1 1 0.000000 26.386600 12.348400 16.794800 # 1 UNK
623 1 1 0.000000 33.721600 12.236200 16.910601 # 1 UNK
624 1 1 0.000000 24.070801 21.838400 13.669400 # 1 UNK
625 1 1 0.000000 24.102400 21.853800 22.878300 # 1 UNK
626 1 1 0.000000 30.070499 21.172899 12.344500 # 1 UNK
627 1 1 0.000000 30.130800 13.704400 14.600800 # 1 UNK
628 1 1 0.000000 30.097799 22.722799 14.634800 # 1 UNK
629 1 1 0.000000 30.099100 13.691200 21.953699 # 1 UNK
630 1 1 0.000000 30.130600 22.705000 22.104300 # 1 UNK
631 1 1 0.000000 27.814501 16.807100 12.315800 # 1 UNK
632 1 1 0.000000 26.423800 12.341300 19.564199 # 1 UNK
633 1 1 0.000000 26.291300 16.019501 14.494800 # 1 UNK
634 1 1 0.000000 26.409800 16.156300 22.115601 # 1 UNK
635 1 1 0.000000 26.280600 20.380400 14.510100 # 1 UNK
636 1 1 0.000000 26.315701 20.406200 22.047100 # 1 UNK
637 1 1 0.000000 27.954800 14.532300 16.114401 # 1 UNK
638 1 1 0.000000 27.922701 21.881599 16.140699 # 1 UNK
639 1 1 0.000000 27.899300 14.514900 20.478300 # 1 UNK
640 1 1 0.000000 28.000700 21.927200 20.471001 # 1 UNK
641 1 1 0.000000 32.351200 16.797001 12.318900 # 1 UNK
642 1 1 0.000000 33.692501 12.236900 19.684601 # 1 UNK
643 1 1 0.000000 33.859001 16.027800 14.522100 # 1 UNK
644 1 1 0.000000 33.780701 15.998600 22.392799 # 1 UNK
645 1 1 0.000000 33.827999 20.359800 14.539000 # 1 UNK
646 1 1 0.000000 33.898899 20.403500 22.346600 # 1 UNK
647 1 1 0.000000 32.276699 14.488800 16.175400 # 1 UNK
648 1 1 0.000000 32.252701 21.914900 16.185900 # 1 UNK
649 1 1 0.000000 32.346001 14.507600 20.546400 # 1 UNK
650 1 1 0.000000 32.333401 21.886200 20.611799 # 1 UNK
651 1 1 0.000000 27.049000 18.204700 18.318199 # 1 UNK
652 1 1 0.000000 33.222099 18.210400 18.474800 # 1 UNK
653 1 1 0.000000 25.422001 18.233200 20.563601 # 1 UNK
654 1 1 0.000000 34.621700 18.172800 20.866100 # 1 UNK
655 1 1 0.000000 25.499001 18.193199 16.021400 # 1 UNK
656 1 1 0.000000 34.617500 18.195200 16.085199 # 1 UNK
657 1 1 0.000000 28.755699 16.027201 18.317301 # 1 UNK
658 1 1 0.000000 31.532400 16.017599 18.374599 # 1 UNK
659 1 1 0.000000 28.768499 20.370300 18.311899 # 1 UNK
660 1 1 0.000000 31.538601 20.406300 18.401899 # 1 UNK
661 1 1 0.000000 0.519463 12.282700 3.349390 # 1 UNK
662 1 1 0.000000 0.495500 14.768500 2.153380 # 1 UNK
663 1 1 0.000000 0.564640 14.515900 10.975200 # 1 UNK
664 1 1 0.000000 35.998001 24.157700 9.276760 # 1 UNK
665 1 1 0.000000 38.259499 24.190201 4.826910 # 1 UNK
666 1 1 0.000000 45.529202 24.205601 4.706260 # 1 UNK
667 1 1 0.000000 41.778801 15.118100 12.305800 # 1 UNK
668 1 1 0.000000 39.591400 19.617599 12.305200 # 1 UNK
669 1 1 0.000000 43.950298 19.581400 12.335000 # 1 UNK
670 1 1 0.000000 35.855701 12.190500 21.413401 # 1 UNK
671 1 1 0.000000 38.108700 12.236800 16.960501 # 1 UNK
672 1 1 0.000000 45.435501 12.130300 16.999399 # 1 UNK
673 1 1 0.000000 35.935101 12.219800 15.256300 # 1 UNK
674 1 1 0.000000 36.001499 14.480200 13.654700 # 1 UNK
675 1 1 0.000000 35.952599 14.397000 23.104700 # 1 UNK
676 1 1 0.000000 35.977001 21.917000 13.709400 # 1 UNK
677 1 1 0.000000 36.146400 21.904800 22.933901 # 1 UNK
678 1 1 0.000000 41.782001 21.302999 12.328900 # 1 UNK
679 1 1 0.000000 41.774300 13.576300 14.604800 # 1 UNK
680 1 1 0.000000 41.752800 22.682899 14.729400 # 1 UNK
681 1 1 0.000000 41.752899 13.533600 22.056400 # 1 UNK
682 1 1 0.000000 41.863400 23.129000 22.505699 # 1 UNK
683 1 1 0.000000 39.619701 16.842400 12.286200 # 1 UNK
684 1 1 0.000000 38.053299 12.202300 19.734800 # 1 UNK
685 1 1 0.000000 38.140301 16.042101 14.498300 # 1 UNK
686 1 1 0.000000 38.126900 15.918300 22.275999 # 1 UNK
687 1 1 0.000000 38.142799 20.391300 14.550500 # 1 UNK
688 1 1 0.000000 38.334099 20.323099 22.350300 # 1 UNK
689 1 1 0.000000 39.628399 14.413400 16.151100 # 1 UNK
690 1 1 0.000000 39.607300 21.926300 16.314800 # 1 UNK
691 1 1 0.000000 39.591301 14.360600 20.532700 # 1 UNK
692 1 1 0.000000 39.881901 22.038700 20.823700 # 1 UNK
693 1 1 0.000000 43.974098 16.800600 12.310500 # 1 UNK
694 1 1 0.000000 45.439602 12.101100 19.777201 # 1 UNK
695 1 1 0.000000 45.433998 16.005800 14.535100 # 1 UNK
696 1 1 0.000000 45.347599 15.899900 22.356199 # 1 UNK
697 1 1 0.000000 45.417000 20.347099 14.561000 # 1 UNK
698 1 1 0.000000 45.300598 20.176800 22.078800 # 1 UNK
699 1 1 0.000000 43.960800 14.325100 16.146601 # 1 UNK
700 1 1 0.000000 43.893101 21.861500 16.284401 # 1 UNK
701 1 1 0.000000 43.962601 14.313400 20.560900 # 1 UNK
702 1 1 0.000000 43.743000 22.009501 20.716700 # 1 UNK
703 1 1 0.000000 38.819302 18.171000 18.456400 # 1 UNK
704 1 1 0.000000 44.681099 18.108299 18.424200 # 1 UNK
705 1 1 0.000000 37.402000 18.179600 20.832899 # 1 UNK
706 1 1 0.000000 46.226799 17.965000 20.715799 # 1 UNK
707 1 1 0.000000 37.393101 18.198700 16.081800 # 1 UNK
708 1 1 0.000000 46.177799 18.171499 16.097601 # 1 UNK
709 1 1 0.000000 40.393299 15.897600 18.365000 # 1 UNK
710 1 1 0.000000 43.165798 15.802100 18.355700 # 1 UNK
711 1 1 0.000000 40.359200 20.472500 18.564199 # 1 UNK
712 1 1 0.000000 43.132999 20.400200 18.522400 # 1 UNK
713 1 1 0.000000 29.922400 3.275890 24.063999 # 1 UNK
714 1 1 0.000000 27.474400 7.706540 24.414600 # 1 UNK
715 1 1 0.000000 31.937700 7.566410 24.226900 # 1 UNK
716 1 1 0.000000 1.272040 46.868801 15.364400 # 1 UNK
717 1 1 0.000000 0.861487 2.326020 14.088500 # 1 UNK
718 1 1 0.000000 0.925514 2.653900 23.764099 # 1 UNK
719 1 1 0.000000 41.858002 3.073190 24.466200 # 1 UNK
720 1 1 0.000000 39.372398 7.662230 24.384701 # 1 UNK
721 1 1 0.000000 43.648499 7.306360 23.912800 # 1 UNK
722 1 1 0.000000 24.138800 24.017500 21.126200 # 1 UNK
723 1 1 0.000000 26.396200 24.081900 16.870800 # 1 UNK
724 1 1 0.000000 33.739300 24.126499 16.953400 # 1 UNK
725 1 1 0.000000 30.095501 15.227300 24.272200 # 1 UNK
726 1 1 0.000000 27.843800 19.967699 24.320000 # 1 UNK
727 1 1 0.000000 32.280701 19.482401 24.397499 # 1 UNK
728 1 1 0.000000 0.617764 12.241000 15.376600 # 1 UNK
729 1 1 0.000000 0.576898 14.489800 13.757100 # 1 UNK
730 1 1 0.000000 0.668668 14.515200 22.720600 # 1 UNK
731 1 1 0.000000 35.989300 24.169201 21.347099 # 1 UNK
732 1 1 0.000000 38.152100 24.158199 17.115200 # 1 UNK
733 1 1 0.000000 45.412201 24.072800 16.982000 # 1 UNK
734 1 1 0.000000 41.957199 15.006000 24.401100 # 1 UNK
735 1 1 0.000000 39.964600 19.223101 24.292000 # 1 UNK
736 1 1 0.000000 43.726200 19.646500 24.295500 # 1 UNK
737 1 1 0.000000 18.197901 26.750200 16.816000 # 1 UNK
738 1 1 0.000000 9.923970 27.627100 7.537180 # 1 UNK
739 1 1 0.000000 33.355000 9.224630 39.523701 # 1 UNK
740 1 1 0.000000 16.896999 45.029800 43.138500 # 1 UNK
741 1 1 0.000000 4.296080 32.105400 20.691401 # 1 UNK
742 1 1 0.000000 7.571940 39.292198 2.983820 # 1 UNK
743 1 1 0.000000 39.130299 33.054100 32.209900 # 1 UNK
744 1 1 0.000000 12.181300 22.963200 45.826000 # 1 UNK
745 1 1 0.000000 24.866301 24.324600 11.916400 # 1 UNK
746 1 1 0.000000 2.570540 43.612801 14.504300 # 1 UNK
747 1 1 0.000000 34.176601 33.519901 46.814201 # 1 UNK
748 1 1 0.000000 7.359670 30.999599 0.830492 # 1 UNK
749 1 1 0.000000 11.099800 27.434299 4.433600 # 1 UNK
750 1 1 0.000000 37.181999 5.540600 29.349701 # 1 UNK
751 1 1 0.000000 33.757401 35.494801 30.841299 # 1 UNK
752 1 1 0.000000 26.581400 38.095699 29.129900 # 1 UNK
753 1 1 0.000000 26.987400 26.965799 1.627810 # 1 UNK
754 1 1 0.000000 24.562099 27.539801 12.242000 # 1 UNK
755 1 1 0.000000 46.265099 39.823601 21.188200 # 1 UNK
756 1 1 0.000000 12.314300 38.340599 37.959202 # 1 UNK
757 1 1 0.000000 13.377100 34.846401 45.385899 # 1 UNK
758 1 1 0.000000 19.953501 28.758600 11.286400 # 1 UNK
759 1 1 0.000000 18.255199 38.616501 18.896400 # 1 UNK
760 1 1 0.000000 14.787400 0.991524 28.906300 # 1 UNK
761 1 1 0.000000 11.453700 26.813999 9.875000 # 1 UNK
762 1 1 0.000000 38.375702 38.929401 47.048401 # 1 UNK
763 1 1 0.000000 9.806280 33.904499 5.358560 # 1 UNK
764 1 1 0.000000 23.071800 33.287998 4.301820 # 1 UNK
765 1 1 0.000000 20.258200 25.803801 18.213301 # 1 UNK
766 1 1 0.000000 21.315100 40.989300 26.932800 # 1 UNK
767 1 1 0.000000 37.910900 34.547298 37.780701 # 1 UNK
768 1 1 0.000000 0.921175 30.852200 19.675900 # 1 UNK
769 1 1 0.000000 12.064100 36.771000 18.035101 # 1 UNK
770 1 1 0.000000 13.139100 20.628500 44.292400 # 1 UNK
771 1 1 0.000000 19.132700 33.509701 15.911100 # 1 UNK
772 1 1 0.000000 39.686298 39.508400 21.057600 # 1 UNK
773 1 1 0.000000 18.414301 35.167301 41.612900 # 1 UNK
774 1 1 0.000000 25.866600 12.775200 35.998600 # 1 UNK
775 1 1 0.000000 24.218399 26.888700 7.746190 # 1 UNK
776 1 1 0.000000 27.077801 25.906000 7.766370 # 1 UNK
777 1 1 0.000000 41.067299 39.536098 4.647710 # 1 UNK
778 1 1 0.000000 16.045200 33.497200 41.802299 # 1 UNK
779 1 1 0.000000 0.731569 32.959202 14.373200 # 1 UNK
780 1 1 0.000000 20.096100 16.888100 32.917400 # 1 UNK
781 1 1 0.000000 3.435200 45.653801 9.297660 # 1 UNK
782 1 1 0.000000 2.055960 38.283901 5.465590 # 1 UNK
783 1 1 0.000000 3.564260 24.026100 24.572300 # 1 UNK
784 1 1 0.000000 37.850899 26.773899 39.568298 # 1 UNK
785 1 1 0.000000 10.013200 39.786900 4.049850 # 1 UNK
786 1 1 0.000000 6.895170 2.636960 46.861198 # 1 UNK
787 1 1 0.000000 21.276699 35.222301 40.601898 # 1 UNK
788 1 1 0.000000 39.883801 31.238199 29.465099 # 1 UNK
789 1 1 0.000000 39.333302 40.986099 9.327720 # 1 UNK
790 1 1 0.000000 6.852490 46.109600 15.735300 # 1 UNK
791 1 1 0.000000 14.272300 28.045300 37.460999 # 1 UNK
792 1 1 0.000000 11.396200 37.508999 4.892350 # 1 UNK
793 1 1 0.000000 20.323500 34.666901 19.748100 # 1 UNK
794 1 1 0.000000 16.813400 3.299460 44.924198 # 1 UNK
795 1 1 0.000000 41.771500 45.924301 14.268900 # 1 UNK
796 1 1 0.000000 5.631960 37.021900 15.811300 # 1 UNK
797 1 1 0.000000 2.818160 40.284199 2.632330 # 1 UNK
798 1 1 0.000000 6.388900 39.840199 15.475700 # 1 UNK
799 1 1 0.000000 26.808399 35.445400 35.827301 # 1 UNK
800 1 1 0.000000 6.823290 44.975399 11.925100 # 1 UNK
801 1 1 0.000000 28.786301 5.330200 32.382599 # 1 UNK
802 1 1 0.000000 13.516500 37.277901 9.146980 # 1 UNK
803 1 1 0.000000 42.867802 35.855999 38.898499 # 1 UNK
804 1 1 0.000000 45.055199 25.951500 13.573000 # 1 UNK
805 1 1 0.000000 4.027970 39.356701 14.135200 # 1 UNK
806 1 1 0.000000 13.716000 39.233398 1.854410 # 1 UNK
807 1 1 0.000000 41.338100 44.339802 4.492680 # 1 UNK
808 1 1 0.000000 16.031799 40.891201 2.101390 # 1 UNK
809 1 1 0.000000 1.025370 39.366402 44.532799 # 1 UNK
810 1 1 0.000000 16.931801 36.702702 10.762500 # 1 UNK
811 1 1 0.000000 46.029400 38.262100 11.700300 # 1 UNK
812 1 1 0.000000 23.379000 32.584702 7.327810 # 1 UNK
813 1 1 0.000000 8.289810 40.571800 27.880600 # 1 UNK
814 1 1 0.000000 24.098000 35.366299 41.253101 # 1 UNK
815 1 1 0.000000 20.508699 44.264000 31.392799 # 1 UNK
816 1 1 0.000000 9.730130 31.116800 7.492980 # 1 UNK
817 1 1 0.000000 2.436930 34.200600 20.787300 # 1 UNK
818 1 1 0.000000 10.995500 41.374199 10.000300 # 1 UNK
819 1 1 0.000000 43.746201 20.072500 37.303600 # 1 UNK
820 1 1 0.000000 40.863701 34.300098 5.962650 # 1 UNK
821 1 1 0.000000 33.065601 44.987499 13.501200 # 1 UNK
822 1 1 0.000000 11.971800 35.221699 10.033400 # 1 UNK
823 1 1 0.000000 18.027399 31.269300 9.983000 # 1 UNK
824 1 1 0.000000 37.006199 32.609600 0.490878 # 1 UNK
825 1 1 0.000000 16.063200 23.548599 13.408500 # 1 UNK
826 1 1 0.000000 36.842999 26.675200 20.925900 # 1 UNK
827 1 1 0.000000 7.559290 36.381001 8.131200 # 1 UNK
828 1 1 0.000000 12.102100 45.067001 39.243198 # 1 UNK
829 1 1 0.000000 43.070801 34.637699 20.640699 # 1 UNK
830 1 1 0.000000 9.524660 33.420200 15.717900 # 1 UNK
831 1 1 0.000000 22.057501 28.320999 8.510880 # 1 UNK
832 1 1 0.000000 13.319200 28.731501 14.039800 # 1 UNK
833 1 1 0.000000 42.189899 27.247400 17.559401 # 1 UNK
834 1 1 0.000000 14.685100 31.946301 1.506220 # 1 UNK
835 1 1 0.000000 4.644450 32.702099 5.324680 # 1 UNK
836 1 1 0.000000 5.107430 26.945299 3.686680 # 1 UNK
837 1 1 0.000000 9.927560 28.810900 15.376100 # 1 UNK
838 1 1 0.000000 16.103800 44.020199 2.026870 # 1 UNK
839 1 1 0.000000 22.515400 27.866501 15.886800 # 1 UNK
840 1 1 0.000000 47.049099 28.744200 17.567301 # 1 UNK
841 1 1 0.000000 4.988960 34.690800 43.536400 # 1 UNK
842 1 1 0.000000 10.864300 42.207901 3.076890 # 1 UNK
843 1 1 0.000000 9.711840 43.516899 45.182800 # 1 UNK
844 1 1 0.000000 1.361200 29.549101 2.746510 # 1 UNK
845 1 1 0.000000 6.093790 24.665600 24.014900 # 1 UNK
846 1 1 0.000000 38.119202 31.052700 24.465099 # 1 UNK
847 1 1 0.000000 8.236870 24.757999 43.194599 # 1 UNK
848 1 1 0.000000 23.716801 30.089899 3.081110 # 1 UNK
849 1 1 0.000000 5.315860 45.408401 45.527100 # 1 UNK
850 1 1 0.000000 25.797800 34.589199 1.013740 # 1 UNK
851 1 1 0.000000 15.862200 19.731400 -0.100681 # 1 UNK
852 1 1 0.000000 35.315102 20.931801 37.588001 # 1 UNK
853 1 1 0.000000 12.019800 39.032101 46.758999 # 1 UNK
854 1 1 0.000000 11.558500 26.592899 20.303101 # 1 UNK
855 1 1 0.000000 39.423100 26.497101 15.498800 # 1 UNK
856 1 1 0.000000 44.447300 27.413500 26.701700 # 1 UNK
857 1 1 0.000000 43.656101 44.805000 16.030701 # 1 UNK
858 1 1 0.000000 28.903900 45.360401 45.118698 # 1 UNK
859 1 1 0.000000 2.917030 26.730101 17.511600 # 1 UNK
860 1 1 0.000000 0.379709 24.492100 14.379300 # 1 UNK
861 1 1 0.000000 9.310610 31.070999 34.186298 # 1 UNK
862 1 1 0.000000 40.731499 31.169500 13.535900 # 1 UNK
863 1 1 0.000000 9.953910 33.050201 19.274900 # 1 UNK
864 1 1 0.000000 15.970900 29.464001 9.958980 # 1 UNK
865 1 1 0.000000 5.301350 40.170101 8.799140 # 1 UNK
866 1 1 0.000000 8.017010 33.097500 10.139200 # 1 UNK
867 1 1 0.000000 46.550900 12.382600 35.348000 # 1 UNK
868 1 1 0.000000 35.313999 26.269100 28.703699 # 1 UNK
869 1 1 0.000000 0.455766 35.706501 26.107300 # 1 UNK
870 1 1 0.000000 13.754000 32.379902 40.694599 # 1 UNK
871 1 1 0.000000 3.100430 22.473000 32.424099 # 1 UNK
872 1 1 0.000000 11.292800 46.295898 29.960899 # 1 UNK
873 1 1 0.000000 4.407670 45.076698 17.166401 # 1 UNK
874 1 1 0.000000 1.689640 35.707100 5.984090 # 1 UNK
875 1 1 0.000000 1.885890 28.679300 15.660300 # 1 UNK
876 1 1 0.000000 17.528601 32.591599 20.931900 # 1 UNK
877 1 1 0.000000 27.281099 33.366501 5.252320 # 1 UNK
878 1 1 0.000000 3.715950 34.829102 13.752500 # 1 UNK
879 1 1 0.000000 16.655001 20.407301 42.519798 # 1 UNK
880 1 1 0.000000 9.951510 23.266300 2.246180 # 1 UNK
881 1 1 0.000000 14.489900 31.234100 14.126000 # 1 UNK
882 1 1 0.000000 3.700370 28.020901 30.007700 # 1 UNK
883 1 1 0.000000 10.584700 40.187698 15.630200 # 1 UNK
884 1 1 0.000000 44.818501 36.029099 42.920601 # 1 UNK
885 1 1 0.000000 7.104690 29.746300 4.694620 # 1 UNK
886 1 1 0.000000 8.251290 30.284800 24.812099 # 1 UNK
887 1 1 0.000000 1.600630 40.163700 12.006100 # 1 UNK
888 1 1 0.000000 3.363420 13.358800 34.249401 # 1 UNK
889 1 1 0.000000 19.738100 45.991798 8.452320 # 1 UNK
890 1 1 0.000000 41.977798 25.712000 33.357800 # 1 UNK
891 1 1 0.000000 43.685902 28.132500 12.174500 # 1 UNK
892 1 1 0.000000 23.959700 14.721300 28.740000 # 1 UNK
893 1 1 0.000000 9.906410 24.387400 19.684200 # 1 UNK
894 1 1 0.000000 14.571600 27.680000 16.440599 # 1 UNK
895 1 1 0.000000 21.252100 14.757400 45.209801 # 1 UNK
896 1 1 0.000000 37.995701 27.692301 5.058140 # 1 UNK
897 1 1 0.000000 35.205799 35.035500 37.423698 # 1 UNK
898 1 1 0.000000 21.593901 38.416100 42.621799 # 1 UNK
899 1 1 0.000000 33.959900 25.693800 10.110400 # 1 UNK
900 1 1 0.000000 30.969200 45.801201 1.917230 # 1 UNK
901 1 1 0.000000 20.384300 36.644199 35.744202 # 1 UNK
902 1 1 0.000000 45.333698 38.689701 19.013901 # 1 UNK
903 1 1 0.000000 3.562860 9.196700 -0.070267 # 1 UNK
904 1 1 0.000000 24.018499 40.835999 1.997720 # 1 UNK
905 1 1 0.000000 25.852501 27.248699 33.956001 # 1 UNK
906 1 1 0.000000 5.029590 23.245701 6.263480 # 1 UNK
907 1 1 0.000000 17.870300 46.189098 3.569900 # 1 UNK
908 1 1 0.000000 10.024700 22.520000 32.568901 # 1 UNK
909 1 1 0.000000 11.366000 29.700399 5.828420 # 1 UNK
910 1 1 0.000000 25.018299 44.927399 7.955060 # 1 UNK
911 1 1 0.000000 6.046940 27.879299 16.352501 # 1 UNK
912 1 1 0.000000 16.306499 26.761600 10.689200 # 1 UNK
913 1 1 0.000000 3.902370 38.925701 16.675600 # 1 UNK
914 1 1 0.000000 13.644800 43.885799 26.970600 # 1 UNK
915 1 1 0.000000 7.070910 45.012402 0.797028 # 1 UNK
916 1 1 0.000000 18.726299 25.148001 1.243930 # 1 UNK
917 1 1 0.000000 10.708400 0.300670 38.623699 # 1 UNK
918 1 1 0.000000 29.087700 35.178799 6.514790 # 1 UNK
919 1 1 0.000000 26.698299 38.243401 40.842201 # 1 UNK
920 1 1 0.000000 15.664500 40.236801 6.150310 # 1 UNK
921 1 1 0.000000 16.181700 44.552601 7.188710 # 1 UNK
922 1 1 0.000000 31.031900 33.431400 37.264099 # 1 UNK
923 1 1 0.000000 28.144100 39.997898 3.032990 # 1 UNK
924 1 1 0.000000 20.368099 36.222900 17.583200 # 1 UNK
925 1 1 0.000000 27.997299 29.960899 11.777000 # 1 UNK
926 1 1 0.000000 18.070400 3.327570 47.380600 # 1 UNK
927 1 1 0.000000 18.161100 39.693401 28.237499 # 1 UNK
928 1 1 0.000000 21.444099 46.441200 16.878000 # 1 UNK
929 1 1 0.000000 12.841200 44.414101 9.526800 # 1 UNK
930 1 1 0.000000 9.625690 46.244202 3.491220 # 1 UNK
931 1 1 0.000000 33.362900 28.696199 1.936510 # 1 UNK
932 1 1 0.000000 19.146299 43.533199 46.349400 # 1 UNK
933 1 1 0.000000 37.875599 39.879799 17.011101 # 1 UNK
934 1 1 0.000000 29.115999 42.732700 46.164799 # 1 UNK
935 1 1 0.000000 41.501202 38.667000 41.158901 # 1 UNK
936 1 1 0.000000 20.274300 9.154840 42.774700 # 1 UNK
937 1 1 0.000000 21.171900 30.997000 39.757000 # 1 UNK
938 1 1 0.000000 0.925419 38.368801 2.018240 # 1 UNK
939 1 1 0.000000 24.776100 31.413500 33.289799 # 1 UNK
940 1 1 0.000000 22.098801 26.754299 11.787700 # 1 UNK
941 1 1 0.000000 4.814190 26.198299 27.221001 # 1 UNK
942 1 1 0.000000 39.694599 31.964701 10.689300 # 1 UNK
943 1 1 0.000000 9.118490 27.438000 17.577700 # 1 UNK
944 1 1 0.000000 18.411200 27.938101 14.114800 # 1 UNK
945 1 1 0.000000 15.412600 44.638599 25.016500 # 1 UNK
946 1 1 0.000000 12.327400 41.879902 46.610100 # 1 UNK
947 1 1 0.000000 14.485500 0.411619 16.608101 # 1 UNK
948 1 1 0.000000 12.317700 37.028900 13.617400 # 1 UNK
949 1 1 0.000000 9.306350 30.495399 20.575600 # 1 UNK
950 1 1 0.000000 11.204300 28.408100 12.270100 # 1 UNK
951 1 1 0.000000 17.836500 21.408199 24.894800 # 1 UNK
952 1 1 0.000000 12.077100 34.620399 14.540000 # 1 UNK
953 1 1 0.000000 32.812901 37.353802 22.008499 # 1 UNK
954 1 1 0.000000 15.470800 45.095100 20.407301 # 1 UNK
955 1 1 0.000000 46.457802 27.726400 1.885170 # 1 UNK
956 1 1 0.000000 21.100500 38.262402 15.744400 # 1 UNK
957 1 1 0.000000 7.372880 32.338902 29.155001 # 1 UNK
958 1 1 0.000000 43.704300 35.762001 29.069099 # 1 UNK
959 1 1 0.000000 9.679630 3.096320 42.820900 # 1 UNK
960 1 1 0.000000 17.481199 29.682600 12.134300 # 1 UNK
961 1 1 0.000000 23.568501 43.753601 15.241900 # 1 UNK
962 1 1 0.000000 44.792599 29.877300 20.511600 # 1 UNK
963 1 1 0.000000 -0.067684 38.354198 24.209700 # 1 UNK
964 1 1 0.000000 26.169300 35.631500 24.493500 # 1 UNK
965 1 1 0.000000 35.240398 32.688202 11.085100 # 1 UNK
966 1 1 0.000000 27.442400 11.263000 33.560398 # 1 UNK
967 1 1 0.000000 25.333599 28.207701 16.259399 # 1 UNK
968 1 1 0.000000 17.304100 33.540901 18.550301 # 1 UNK
969 1 1 0.000000 15.085500 32.105099 24.816601 # 1 UNK
970 1 1 0.000000 10.876400 43.158699 6.701660 # 1 UNK
971 1 1 0.000000 40.547298 37.422001 37.708500 # 1 UNK
972 1 1 0.000000 16.452600 45.741100 9.853230 # 1 UNK
973 1 1 0.000000 12.509000 38.109200 23.335699 # 1 UNK
974 1 1 0.000000 36.905800 26.500099 17.090401 # 1 UNK
975 1 1 0.000000 11.171600 39.100498 25.758900 # 1 UNK
976 1 1 0.000000 22.656099 33.971001 10.993500 # 1 UNK
977 1 1 0.000000 16.194300 26.686001 22.032801 # 1 UNK
978 1 1 0.000000 14.698300 26.841200 5.352220 # 1 UNK
979 1 1 0.000000 39.607700 31.713200 18.655100 # 1 UNK
980 1 1 0.000000 21.499800 24.064699 20.142900 # 1 UNK
981 1 1 0.000000 42.661598 41.199402 23.181400 # 1 UNK
982 1 1 0.000000 35.978901 24.523899 18.705299 # 1 UNK
983 1 1 0.000000 47.257900 43.995201 19.989000 # 1 UNK
984 1 1 0.000000 3.289270 47.144001 5.060340 # 1 UNK
985 1 1 0.000000 8.140850 41.800900 1.793710 # 1 UNK
986 1 1 0.000000 3.253450 21.462099 28.984699 # 1 UNK
987 1 1 0.000000 9.293640 32.971600 0.085493 # 1 UNK
988 1 1 0.000000 14.860500 34.117401 31.389999 # 1 UNK
989 1 1 0.000000 0.197283 1.858390 21.047300 # 1 UNK
990 1 1 0.000000 38.812801 22.488001 43.282001 # 1 UNK
991 1 1 0.000000 6.384360 34.895599 4.955880 # 1 UNK
992 1 1 0.000000 4.849450 30.506399 7.238900 # 1 UNK
993 1 1 0.000000 34.579399 41.384499 23.069700 # 1 UNK
994 1 1 0.000000 15.083800 40.327801 46.628700 # 1 UNK
995 1 1 0.000000 43.038502 24.714399 15.859700 # 1 UNK
996 1 1 0.000000 6.872570 36.424702 11.008400 # 1 UNK
997 1 1 0.000000 21.663099 3.580370 26.143101 # 1 UNK
998 1 1 0.000000 4.473630 13.027900 37.683601 # 1 UNK
999 1 1 0.000000 11.282500 16.314301 42.186600 # 1 UNK
1000 1 1 0.000000 1.822510 27.434799 8.436130 # 1 UNK
1001 1 1 0.000000 2.366420 3.798680 43.218498 # 1 UNK
1002 1 1 0.000000 45.051498 36.618000 24.456900 # 1 UNK
1003 1 1 0.000000 8.389200 37.287102 43.653099 # 1 UNK
1004 1 1 0.000000 13.454200 34.211498 38.552299 # 1 UNK
1005 1 1 0.000000 42.581799 34.848099 14.225500 # 1 UNK
1006 1 1 0.000000 11.717500 42.188900 29.645500 # 1 UNK
1007 1 1 0.000000 9.910520 10.969300 40.968498 # 1 UNK
1008 1 1 0.000000 20.905500 43.851200 28.594700 # 1 UNK
1009 1 1 0.000000 13.406300 36.251701 3.495070 # 1 UNK
1010 1 1 0.000000 10.169800 32.838299 28.519899 # 1 UNK
1011 1 1 0.000000 44.265598 31.247000 44.182098 # 1 UNK
1012 1 1 0.000000 41.982201 15.240600 46.295601 # 1 UNK
1013 1 1 0.000000 5.019980 28.480400 36.906601 # 1 UNK
1014 1 1 0.000000 20.344200 37.145401 13.340000 # 1 UNK
1015 1 1 0.000000 21.035400 39.588501 24.341999 # 1 UNK
1016 1 1 0.000000 21.065500 39.334099 5.193840 # 1 UNK
1017 1 1 0.000000 6.256530 39.761200 6.157220 # 1 UNK
1018 1 1 0.000000 28.777399 32.072601 3.361090 # 1 UNK
1019 1 1 0.000000 34.046902 41.285500 6.530340 # 1 UNK
1020 1 1 0.000000 42.089100 4.205820 29.078300 # 1 UNK
1021 1 1 0.000000 19.394600 42.488300 15.130700 # 1 UNK
1022 1 1 0.000000 15.851600 42.704498 22.742599 # 1 UNK
1023 1 1 0.000000 42.492100 41.022400 33.203602 # 1 UNK
1024 1 1 0.000000 14.982400 29.458799 4.958540 # 1 UNK
1025 1 1 0.000000 22.522499 41.767502 23.343700 # 1 UNK
1026 1 1 0.000000 13.822000 45.600800 2.636150 # 1 UNK
1027 1 1 0.000000 18.020700 44.916901 28.292999 # 1 UNK
1028 1 1 0.000000 5.549510 46.289799 31.864700 # 1 UNK
1029 1 1 0.000000 25.979401 43.098099 27.486000 # 1 UNK
1030 1 1 0.000000 27.568001 38.030701 5.006770 # 1 UNK
1031 1 1 0.000000 30.639200 29.744301 12.671100 # 1 UNK
1032 1 1 0.000000 12.234900 0.407086 9.249490 # 1 UNK
1033 1 1 0.000000 15.454000 40.789700 40.076801 # 1 UNK
1034 1 1 0.000000 16.938801 37.438599 3.891970 # 1 UNK
1035 1 1 0.000000 14.541800 33.038300 8.944920 # 1 UNK
1036 1 1 0.000000 13.572600 36.978298 6.426690 # 1 UNK
1037 1 1 0.000000 32.600300 29.799101 8.193810 # 1 UNK
1038 1 1 0.000000 16.290199 36.784401 14.484400 # 1 UNK
1039 1 1 0.000000 26.791901 46.863899 15.247900 # 1 UNK
1040 1 1 0.000000 18.017300 45.171700 12.989300 # 1 UNK
1041 1 1 0.000000 41.584202 36.946400 18.932199 # 1 UNK
1042 1 1 0.000000 6.113870 46.366798 22.132099 # 1 UNK
1043 1 1 0.000000 20.263800 38.433201 29.965300 # 1 UNK
1044 1 1 0.000000 14.165400 27.123100 19.606600 # 1 UNK
1045 1 1 0.000000 13.460000 6.548920 30.860500 # 1 UNK
1046 1 1 0.000000 28.237400 34.159698 11.887700 # 1 UNK
1047 1 1 0.000000 10.756000 40.328098 23.198400 # 1 UNK
1048 1 1 0.000000 26.176500 32.681499 8.099870 # 1 UNK
1049 1 1 0.000000 21.886700 17.150499 43.910000 # 1 UNK
1050 1 1 0.000000 39.933399 39.231899 11.223200 # 1 UNK
1051 1 1 0.000000 3.700080 33.871300 11.031000 # 1 UNK
1052 1 1 0.000000 5.856830 26.843000 0.729658 # 1 UNK
1053 1 1 0.000000 23.691601 39.061199 9.145110 # 1 UNK
1054 1 1 0.000000 25.624300 36.854198 26.991501 # 1 UNK
1055 1 1 0.000000 25.453899 30.155199 37.346901 # 1 UNK
1056 1 1 0.000000 15.575500 40.341400 20.403601 # 1 UNK
1057 1 1 0.000000 23.088301 44.930099 2.542110 # 1 UNK
1058 1 1 0.000000 8.393500 45.438099 6.369900 # 1 UNK
1059 1 1 0.000000 16.238800 25.558800 18.663300 # 1 UNK
1060 1 1 0.000000 32.417400 46.160198 38.264999 # 1 UNK
1061 1 1 0.000000 13.277000 45.012901 15.929900 # 1 UNK
1062 1 1 0.000000 10.492300 30.718399 13.429900 # 1 UNK
1063 1 1 0.000000 18.175800 43.414200 17.404100 # 1 UNK
1064 1 1 0.000000 10.362200 42.402599 13.750100 # 1 UNK
1065 1 1 0.000000 3.659930 45.415100 20.944300 # 1 UNK
1066 1 1 0.000000 41.657799 35.235001 11.082800 # 1 UNK
1067 1 1 0.000000 29.415701 42.992500 11.905700 # 1 UNK
1068 1 1 0.000000 24.127600 0.049840 9.254520 # 1 UNK
1069 1 1 0.000000 24.798901 2.795290 36.955299 # 1 UNK
1070 1 1 0.000000 37.413101 27.857300 37.034401 # 1 UNK
1071 1 1 0.000000 14.354800 45.716301 38.071602 # 1 UNK
1072 1 1 0.000000 15.464400 10.623000 43.469700 # 1 UNK
1073 1 1 0.000000 20.808901 29.207600 13.818800 # 1 UNK
1074 1 1 0.000000 45.582699 4.290660 28.264299 # 1 UNK
1075 1 1 0.000000 24.770901 44.351501 24.814400 # 1 UNK
1076 1 1 0.000000 29.086700 41.282600 23.315399 # 1 UNK
1077 1 1 0.000000 26.101801 36.641899 2.882270 # 1 UNK
1078 1 1 0.000000 24.160101 24.302000 15.278300 # 1 UNK
1079 1 1 0.000000 29.925900 21.058399 25.633101 # 1 UNK
1080 1 1 0.000000 23.397100 39.710098 28.383200 # 1 UNK
1081 1 1 0.000000 17.532801 39.155800 23.741899 # 1 UNK
1082 1 1 0.000000 4.394780 43.084301 37.073502 # 1 UNK
1083 1 1 0.000000 11.436800 27.989799 29.416300 # 1 UNK
1084 1 1 0.000000 15.175800 24.676300 20.785101 # 1 UNK
1085 1 1 0.000000 19.623100 24.853500 9.755890 # 1 UNK
1086 1 1 0.000000 6.959660 28.970600 20.858400 # 1 UNK
1087 1 1 0.000000 19.925200 34.530800 24.200300 # 1 UNK
1088 1 1 0.000000 8.682880 33.916599 34.516201 # 1 UNK
1089 1 1 0.000000 3.052950 11.864100 22.529400 # 1 UNK
1090 1 1 0.000000 43.078999 33.799500 25.647200 # 1 UNK
1091 1 1 0.000000 5.021480 43.097500 23.706100 # 1 UNK
1092 1 1 0.000000 12.338000 33.801399 26.848400 # 1 UNK
1093 1 1 0.000000 6.748960 21.783800 29.813000 # 1 UNK
1094 1 1 0.000000 7.433580 37.899601 38.732300 # 1 UNK
1095 1 1 0.000000 45.138401 20.029400 42.832401 # 1 UNK
1096 1 1 0.000000 30.828899 37.915901 10.602500 # 1 UNK
1097 1 1 0.000000 15.006800 22.455799 44.663200 # 1 UNK
1098 1 1 0.000000 8.563890 32.865299 21.708799 # 1 UNK
1099 1 1 0.000000 8.977320 46.013302 21.974600 # 1 UNK
1100 1 1 0.000000 12.147100 0.209234 17.974199 # 1 UNK
1101 1 1 0.000000 30.756300 26.079500 44.492599 # 1 UNK
1102 1 1 0.000000 4.446420 33.040699 28.131001 # 1 UNK
1103 1 1 0.000000 18.000401 41.446400 9.375120 # 1 UNK
1104 1 1 0.000000 38.901402 36.910500 44.817001 # 1 UNK
1105 1 1 0.000000 38.257301 25.867100 42.084801 # 1 UNK
1106 1 1 0.000000 26.124399 0.822802 31.475500 # 1 UNK
1107 1 1 0.000000 45.046700 34.565498 45.298199 # 1 UNK
1108 1 1 0.000000 9.132360 31.078300 2.993780 # 1 UNK
1109 1 1 0.000000 42.656200 26.430099 5.422810 # 1 UNK
1110 1 1 0.000000 41.124401 24.733400 0.100417 # 1 UNK
1111 1 1 0.000000 38.085602 2.297420 34.452801 # 1 UNK
1112 1 1 0.000000 30.760599 41.821301 13.936700 # 1 UNK
1113 1 1 0.000000 35.497799 33.564899 30.084101 # 1 UNK
1114 1 1 0.000000 7.277210 39.529099 44.738499 # 1 UNK
1115 1 1 0.000000 42.082802 33.689701 1.184660 # 1 UNK
1116 1 1 0.000000 26.753599 26.888000 40.285702 # 1 UNK
1117 1 1 0.000000 28.521500 39.514301 25.386600 # 1 UNK
1118 1 1 0.000000 26.452900 9.531060 46.765800 # 1 UNK
1119 1 1 0.000000 38.913101 15.645000 42.416000 # 1 UNK
1120 1 1 0.000000 4.334150 37.559299 35.563599 # 1 UNK
1121 1 1 0.000000 36.013401 28.599300 3.199160 # 1 UNK
1122 1 1 0.000000 46.006401 19.779600 39.332199 # 1 UNK
1123 1 1 0.000000 42.572102 24.945400 11.213600 # 1 UNK
1124 1 1 0.000000 3.994150 2.349970 41.634602 # 1 UNK
1125 1 1 0.000000 2.728090 24.063700 7.433880 # 1 UNK
1126 1 1 0.000000 14.467200 35.134602 21.399700 # 1 UNK
1127 1 1 0.000000 40.480000 35.477100 2.508690 # 1 UNK
1128 1 1 0.000000 30.569300 33.065899 4.947320 # 1 UNK
1129 1 1 0.000000 15.535500 22.292700 0.497285 # 1 UNK
1130 1 1 0.000000 38.658600 29.131500 18.345900 # 1 UNK
1131 1 1 0.000000 5.659960 19.709000 43.262402 # 1 UNK
1132 1 1 0.000000 7.795610 25.170000 9.787700 # 1 UNK
1133 1 1 0.000000 24.329100 41.098202 46.009300 # 1 UNK
1134 1 1 0.000000 6.244080 43.064999 9.463180 # 1 UNK
1135 1 1 0.000000 1.768280 32.799900 39.244400 # 1 UNK
1136 1 1 0.000000 5.732200 31.936501 10.123000 # 1 UNK
1137 1 1 0.000000 24.050699 43.847301 10.342100 # 1 UNK
1138 1 1 0.000000 45.171700 31.629700 1.895980 # 1 UNK
1139 1 1 0.000000 39.564800 32.779900 46.698002 # 1 UNK
1140 1 1 0.000000 34.478699 33.627102 6.609770 # 1 UNK
1141 1 1 0.000000 2.481060 25.459101 41.883301 # 1 UNK
1142 1 1 0.000000 39.965698 34.334702 19.240400 # 1 UNK
1143 1 1 0.000000 41.226700 38.172298 15.641700 # 1 UNK
1144 1 1 0.000000 0.007411 30.917801 9.428530 # 1 UNK
1145 1 1 0.000000 27.202499 27.571301 12.494100 # 1 UNK
1146 1 1 0.000000 27.576700 29.246201 5.289620 # 1 UNK
1147 1 1 0.000000 31.532499 46.592800 9.219540 # 1 UNK
1148 1 1 0.000000 39.438202 42.012901 38.655300 # 1 UNK
1149 1 1 0.000000 24.934900 35.469101 4.904070 # 1 UNK
1150 1 1 0.000000 30.513201 0.084396 24.050900 # 1 UNK
1151 1 1 0.000000 29.263800 37.706501 22.701500 # 1 UNK
1152 1 1 0.000000 19.948799 32.023701 13.643900 # 1 UNK
1153 1 1 0.000000 37.970200 23.926100 7.543620 # 1 UNK
1154 1 1 0.000000 41.828899 40.041901 17.586201 # 1 UNK
1155 1 1 0.000000 2.704210 29.438601 44.005901 # 1 UNK
1156 1 1 0.000000 41.125900 30.579300 45.999500 # 1 UNK
1157 1 1 0.000000 42.662701 41.118999 3.067000 # 1 UNK
1158 1 1 0.000000 31.748800 35.493401 5.605590 # 1 UNK
1159 1 1 0.000000 25.897600 26.348600 10.119300 # 1 UNK
1160 1 1 0.000000 43.664101 0.629406 32.836601 # 1 UNK
1161 1 1 0.000000 40.215698 31.877600 4.092640 # 1 UNK
1162 1 1 0.000000 19.290199 44.894600 1.646780 # 1 UNK
1163 1 1 0.000000 23.341400 34.500599 18.024200 # 1 UNK
1164 1 1 0.000000 31.131201 46.618099 14.815500 # 1 UNK
1165 1 1 0.000000 12.479700 45.685699 42.353199 # 1 UNK
1166 1 1 0.000000 11.728400 32.773998 8.375520 # 1 UNK
1167 1 1 0.000000 34.791599 32.950600 2.333910 # 1 UNK
1168 1 1 0.000000 26.252399 0.433494 4.558000 # 1 UNK
1169 1 1 0.000000 20.101900 31.151501 44.982201 # 1 UNK
1170 1 1 0.000000 28.812901 30.806101 41.689400 # 1 UNK
1171 1 1 0.000000 45.700901 33.612900 9.330990 # 1 UNK
1172 1 1 0.000000 23.493000 43.965401 5.529570 # 1 UNK
1173 1 1 0.000000 4.773510 32.156799 16.417700 # 1 UNK
1174 1 1 0.000000 37.098099 42.018299 3.699930 # 1 UNK
1175 1 1 0.000000 15.481600 40.180801 16.672199 # 1 UNK
1176 1 1 0.000000 44.211800 7.651530 0.180023 # 1 UNK
1177 1 1 0.000000 2.086740 41.096100 5.269920 # 1 UNK
1178 1 1 0.000000 32.229500 42.883701 31.467600 # 1 UNK
1179 1 1 0.000000 21.753099 8.665330 38.034500 # 1 UNK
1180 1 1 0.000000 1.058400 45.903599 6.379380 # 1 UNK
1181 1 1 0.000000 32.610298 31.258400 1.196470 # 1 UNK
1182 1 1 0.000000 5.115330 36.625099 22.750000 # 1 UNK
1183 1 1 0.000000 22.368601 42.943001 8.507230 # 1 UNK
1184 1 1 0.000000 19.734501 44.628399 39.364899 # 1 UNK
1185 1 1 0.000000 34.589699 41.306599 1.715690 # 1 UNK
1186 1 1 0.000000 20.933901 31.691799 24.137100 # 1 UNK
1187 1 1 0.000000 1.606250 44.357800 43.776600 # 1 UNK
1188 1 1 0.000000 34.948299 37.830700 5.838950 # 1 UNK
1189 1 1 0.000000 30.355301 5.868150 43.594601 # 1 UNK
1190 1 1 0.000000 33.436901 23.626101 22.112000 # 1 UNK
1191 1 1 0.000000 12.860800 27.635900 45.519699 # 1 UNK
1192 1 1 0.000000 18.133600 31.273800 17.393700 # 1 UNK
1193 1 1 0.000000 17.907900 32.128399 5.674420 # 1 UNK
1194 1 1 0.000000 40.960999 26.853701 45.278099 # 1 UNK
1195 1 1 0.000000 26.638201 29.139799 46.658901 # 1 UNK
1196 1 1 0.000000 23.723600 28.026501 28.241199 # 1 UNK
1197 1 1 0.000000 26.928101 42.104698 11.557400 # 1 UNK
1198 1 1 0.000000 34.057499 29.291500 38.537800 # 1 UNK
1199 1 1 0.000000 20.124901 27.998699 20.156500 # 1 UNK
1200 1 1 0.000000 18.684099 25.712799 21.981501 # 1 UNK
1201 1 1 0.000000 27.858400 32.836300 15.982000 # 1 UNK
1202 1 1 0.000000 4.948880 35.763599 46.225899 # 1 UNK
1203 1 1 0.000000 42.021702 28.197500 9.160540 # 1 UNK
1204 1 1 0.000000 37.431999 27.867500 44.776501 # 1 UNK
1205 1 1 0.000000 38.565399 26.017900 12.547200 # 1 UNK
1206 1 1 0.000000 30.902700 45.956100 12.163200 # 1 UNK
1207 1 1 0.000000 38.054298 33.221901 26.000500 # 1 UNK
1208 1 1 0.000000 29.729500 10.152500 41.412102 # 1 UNK
1209 1 1 0.000000 44.819698 29.941099 7.250760 # 1 UNK
1210 1 1 0.000000 34.776501 42.562599 16.592600 # 1 UNK
1211 1 1 0.000000 25.664101 26.790100 5.371730 # 1 UNK
1212 1 1 0.000000 19.001801 24.015100 5.345460 # 1 UNK
1213 1 1 0.000000 33.375301 27.146999 15.695100 # 1 UNK
1214 1 1 0.000000 24.891500 37.908001 16.530001 # 1 UNK
1215 1 1 0.000000 39.797001 33.712898 12.744900 # 1 UNK
1216 1 1 0.000000 32.149200 23.913200 11.458400 # 1 UNK
1217 1 1 0.000000 32.161400 25.906401 41.694599 # 1 UNK
1218 1 1 0.000000 25.900200 12.749800 41.109699 # 1 UNK
1219 1 1 0.000000 24.988400 31.228001 45.699501 # 1 UNK
1220 1 1 0.000000 32.452099 24.077999 14.598000 # 1 UNK
1221 1 1 0.000000 39.922501 38.190300 2.002290 # 1 UNK
1222 1 1 0.000000 36.185398 30.306999 14.445600 # 1 UNK
1223 1 1 0.000000 37.004101 33.051300 18.149401 # 1 UNK
1224 1 1 0.000000 29.968500 36.560001 13.424900 # 1 UNK
1225 1 1 0.000000 29.037300 38.646000 42.480598 # 1 UNK
1226 1 1 0.000000 34.060600 17.823500 28.611799 # 1 UNK
1227 1 1 0.000000 20.669701 38.770401 20.144899 # 1 UNK
1228 1 1 0.000000 31.215401 30.386900 42.585701 # 1 UNK
1229 1 1 0.000000 35.880199 31.180300 9.006140 # 1 UNK
1230 1 1 0.000000 44.487701 27.394899 21.651199 # 1 UNK
1231 1 1 0.000000 39.640202 28.606300 13.590200 # 1 UNK
1232 1 1 0.000000 20.237499 27.449100 1.799120 # 1 UNK
1233 1 1 0.000000 28.257900 31.135000 22.962799 # 1 UNK
1234 1 1 0.000000 35.733799 43.599499 7.487870 # 1 UNK
1235 1 1 0.000000 25.230499 30.887899 20.598301 # 1 UNK
1236 1 1 0.000000 12.650700 30.723400 16.050501 # 1 UNK
1237 1 1 0.000000 13.297400 30.301300 26.260201 # 1 UNK
1238 1 1 0.000000 15.518600 38.123901 18.876900 # 1 UNK
1239 1 1 0.000000 32.728199 40.111099 15.274700 # 1 UNK
1240 1 1 0.000000 26.380899 38.710701 14.782900 # 1 UNK
1241 1 1 0.000000 35.671700 37.942299 26.258200 # 1 UNK
1242 1 1 0.000000 28.975800 35.079201 18.199800 # 1 UNK
1243 1 1 0.000000 26.839600 14.837200 27.548800 # 1 UNK
1244 1 1 0.000000 2.767490 37.928699 0.329737 # 1 UNK
1245 1 1 0.000000 39.323200 26.510099 7.342860 # 1 UNK
1246 1 1 0.000000 30.379400 25.525200 2.780810 # 1 UNK
1247 1 1 0.000000 38.383999 41.501900 11.700900 # 1 UNK
1248 1 1 0.000000 44.887901 33.134701 6.883190 # 1 UNK
1249 1 1 0.000000 5.794240 4.940990 27.203199 # 1 UNK
1250 1 1 0.000000 42.036499 40.877300 44.383400 # 1 UNK
1251 1 1 0.000000 44.997299 32.173698 33.328602 # 1 UNK
1252 1 1 0.000000 36.324001 33.272499 4.656090 # 1 UNK
1253 1 1 0.000000 33.574100 38.433899 10.909600 # 1 UNK
1254 1 1 0.000000 24.197001 34.859901 44.695099 # 1 UNK
1255 1 1 0.000000 30.486000 33.166500 13.488700 # 1 UNK
1256 1 1 0.000000 20.300100 4.825580 37.529800 # 1 UNK
1257 1 1 0.000000 39.059898 26.402000 2.743300 # 1 UNK
1258 1 1 0.000000 33.832100 22.039301 12.394700 # 1 UNK
1259 1 1 0.000000 40.228901 30.180300 16.501101 # 1 UNK
1260 1 1 0.000000 1.185490 42.151402 32.340500 # 1 UNK
1261 1 1 0.000000 37.399101 35.869202 3.980340 # 1 UNK
1262 1 1 0.000000 4.142540 46.513599 15.030500 # 1 UNK
1263 1 1 0.000000 34.515800 40.807598 9.295820 # 1 UNK
1264 1 1 0.000000 4.054720 28.925600 0.265122 # 1 UNK
1265 1 1 0.000000 28.059299 29.115499 16.670000 # 1 UNK
1266 1 1 0.000000 10.459300 25.845301 13.565200 # 1 UNK
1267 1 1 0.000000 35.966801 27.685699 9.968640 # 1 UNK
1268 1 1 0.000000 11.940700 30.823400 20.843901 # 1 UNK
1269 1 1 0.000000 37.134499 42.281300 40.159199 # 1 UNK
1270 1 1 0.000000 36.797798 38.608700 41.824200 # 1 UNK
1271 1 1 0.000000 43.674999 46.593601 10.097200 # 1 UNK
1272 1 1 0.000000 38.990299 45.798801 17.270201 # 1 UNK
1273 1 1 0.000000 39.340698 46.324699 33.216702 # 1 UNK
1274 1 1 0.000000 40.696701 44.294201 42.685299 # 1 UNK
1275 1 1 0.000000 35.924900 46.536701 6.199220 # 1 UNK
1276 1 1 0.000000 24.581400 34.877899 8.318530 # 1 UNK
1277 1 1 0.000000 33.589699 42.401699 13.956900 # 1 UNK
1278 1 1 0.000000 29.022600 45.484901 9.637730 # 1 UNK
1279 1 1 0.000000 4.921060 39.169701 46.288700 # 1 UNK
1280 1 1 0.000000 33.127399 28.536501 5.524840 # 1 UNK
1281 1 1 0.000000 44.331699 42.587700 14.173200 # 1 UNK
1282 1 1 0.000000 4.254840 44.903000 12.819700 # 1 UNK
1283 1 1 0.000000 1.842060 32.458099 7.775670 # 1 UNK
1284 1 1 0.000000 2.716900 41.366699 16.165400 # 1 UNK
1285 1 1 0.000000 44.174000 37.451302 0.762452 # 1 UNK
1286 1 1 0.000000 39.954399 39.693901 7.080950 # 1 UNK
1287 1 1 0.000000 42.649799 31.923500 15.223800 # 1 UNK
1288 1 1 0.000000 40.171101 34.832001 39.229698 # 1 UNK
1289 1 1 0.000000 0.319780 42.947701 6.755500 # 1 UNK
1290 1 1 0.000000 17.490299 28.753401 6.699810 # 1 UNK
1291 1 1 0.000000 1.847560 30.670300 0.385221 # 1 UNK
1292 1 1 0.000000 17.611000 40.955898 46.927799 # 1 UNK
1293 1 1 0.000000 39.843601 44.866501 6.706320 # 1 UNK
1294 1 1 0.000000 29.787701 16.498199 43.191700 # 1 UNK
1295 1 1 0.000000 12.974600 5.781730 36.984200 # 1 UNK
1296 1 1 0.000000 45.470001 24.163500 7.428220 # 1 UNK
1297 1 1 0.000000 40.481998 37.372200 8.948830 # 1 UNK
1298 1 1 0.000000 41.705799 37.217999 13.072600 # 1 UNK
1299 1 1 0.000000 4.088580 34.009701 18.535601 # 1 UNK
1300 1 1 0.000000 25.843000 36.509800 10.371100 # 1 UNK
1301 1 1 0.000000 17.017300 38.389801 45.212799 # 1 UNK
1302 1 1 0.000000 45.690899 42.575699 8.825390 # 1 UNK
1303 1 1 0.000000 9.247210 0.226329 15.443700 # 1 UNK
1304 1 1 0.000000 7.036680 32.427101 7.640950 # 1 UNK
1305 1 1 0.000000 13.767600 41.647701 10.666200 # 1 UNK
1306 1 1 0.000000 27.082701 45.294998 5.811040 # 1 UNK
1307 1 1 0.000000 2.005240 35.805302 18.537300 # 1 UNK
1308 1 1 0.000000 43.201199 23.645399 6.130340 # 1 UNK
1309 1 1 0.000000 34.589802 27.210100 42.112099 # 1 UNK
1310 1 1 0.000000 42.591301 29.267500 29.029200 # 1 UNK
1311 1 1 0.000000 29.803400 27.987700 15.120600 # 1 UNK
1312 1 1 0.000000 30.781799 33.238899 19.477301 # 1 UNK
1313 1 1 0.000000 35.516399 34.059502 24.006100 # 1 UNK
1314 1 1 0.000000 36.384399 0.175804 21.259399 # 1 UNK
1315 1 1 0.000000 42.671001 31.246300 21.680000 # 1 UNK
1316 1 1 0.000000 45.158401 28.857100 9.612350 # 1 UNK
1317 1 1 0.000000 34.241798 35.904701 39.709702 # 1 UNK
1318 1 1 0.000000 7.047950 32.195099 12.506900 # 1 UNK
1319 1 1 0.000000 32.210701 19.706301 37.479301 # 1 UNK
1320 1 1 0.000000 37.237000 40.644299 28.211300 # 1 UNK
1321 1 1 0.000000 5.366440 44.018002 19.389500 # 1 UNK
1322 1 1 0.000000 33.648602 38.534199 24.320101 # 1 UNK
1323 1 1 0.000000 41.018501 42.580601 11.049300 # 1 UNK
1324 1 1 0.000000 6.882410 44.351398 37.633801 # 1 UNK
1325 1 1 0.000000 31.959101 40.473400 20.555599 # 1 UNK
1326 1 1 0.000000 44.167198 5.987240 41.513199 # 1 UNK
1327 1 1 0.000000 31.798000 29.658800 16.011101 # 1 UNK
1328 1 1 0.000000 5.047010 34.041100 32.832199 # 1 UNK
1329 1 1 0.000000 1.026760 23.162600 28.735800 # 1 UNK
1330 1 1 0.000000 18.027399 27.740601 32.129002 # 1 UNK
1331 1 1 0.000000 41.142300 42.671501 8.186450 # 1 UNK
1332 1 1 0.000000 37.169201 29.893600 34.298801 # 1 UNK
1333 1 1 0.000000 8.208400 35.536800 1.185970 # 1 UNK
1334 1 1 0.000000 6.012800 25.540100 7.464720 # 1 UNK
1335 1 1 0.000000 5.994290 33.971500 14.637900 # 1 UNK
1336 1 1 0.000000 14.295000 3.932570 28.792200 # 1 UNK
1337 1 1 0.000000 46.223301 32.453800 37.651100 # 1 UNK
1338 1 1 0.000000 0.728283 25.974701 4.309470 # 1 UNK
1339 1 1 0.000000 4.461150 16.438101 27.958500 # 1 UNK
1340 1 1 0.000000 46.169601 33.532501 17.432800 # 1 UNK
1341 1 1 0.000000 41.082298 24.186800 4.709550 # 1 UNK
1342 1 1 0.000000 13.742300 32.192600 44.409199 # 1 UNK
1343 1 1 0.000000 33.430302 40.596500 18.186501 # 1 UNK
1344 1 1 0.000000 15.078000 32.213100 11.576700 # 1 UNK
1345 1 1 0.000000 32.541500 35.728699 47.065701 # 1 UNK
1346 1 1 0.000000 42.975498 26.143999 20.100901 # 1 UNK
1347 1 1 0.000000 1.052110 46.202301 18.097000 # 1 UNK
1348 1 1 0.000000 44.861801 26.743299 3.992140 # 1 UNK
1349 1 1 0.000000 9.033330 29.829500 11.310500 # 1 UNK
1350 1 1 0.000000 35.557899 30.108601 11.841400 # 1 UNK
1351 1 1 0.000000 22.502399 45.639702 13.581700 # 1 UNK
1352 1 1 0.000000 30.876801 43.255199 5.361460 # 1 UNK
1353 1 1 0.000000 29.385900 26.160801 41.056900 # 1 UNK
1354 1 1 0.000000 36.907600 44.442299 12.334800 # 1 UNK
1355 1 1 0.000000 35.965099 36.800201 28.819500 # 1 UNK
1356 1 1 0.000000 2.286870 37.455502 13.011000 # 1 UNK
1357 1 1 0.000000 37.811100 35.815800 17.235800 # 1 UNK
1358 1 1 0.000000 15.795000 0.371297 21.626699 # 1 UNK
1359 1 1 0.000000 24.647301 38.921200 3.836520 # 1 UNK
1360 1 1 0.000000 28.419001 43.060001 43.572701 # 1 UNK
1361 1 1 0.000000 18.300100 31.946199 34.704399 # 1 UNK
1362 1 1 0.000000 34.025600 29.879400 19.953400 # 1 UNK
1363 1 1 0.000000 35.932598 46.676399 11.057800 # 1 UNK
1364 1 1 0.000000 14.447300 0.330084 4.663370 # 1 UNK
1365 1 1 0.000000 21.354601 6.229220 26.260401 # 1 UNK
1366 1 1 0.000000 10.456500 36.332100 20.374599 # 1 UNK
1367 1 1 0.000000 30.487700 8.690580 30.323700 # 1 UNK
1368 1 1 0.000000 26.239901 45.333500 17.805500 # 1 UNK
1369 1 1 0.000000 34.701900 37.427101 8.797750 # 1 UNK
1370 1 1 0.000000 36.598202 35.384102 26.065399 # 1 UNK
1371 1 1 0.000000 11.227500 38.788502 32.596401 # 1 UNK
1372 1 1 0.000000 10.807000 32.841900 11.169100 # 1 UNK
1373 1 1 0.000000 18.612900 34.630199 4.291400 # 1 UNK
1374 1 1 0.000000 28.745600 43.980701 17.628500 # 1 UNK
1375 1 1 0.000000 32.522499 37.591599 13.869000 # 1 UNK
1376 1 1 0.000000 38.158501 29.275499 21.115499 # 1 UNK
1377 1 1 0.000000 14.710200 30.044901 46.604198 # 1 UNK
1378 1 1 0.000000 42.473400 38.975101 7.340700 # 1 UNK
1379 1 1 0.000000 37.729301 43.296501 9.944990 # 1 UNK
1380 1 1 0.000000 37.739498 23.926300 11.048400 # 1 UNK
1381 1 1 0.000000 41.642101 31.178801 8.553010 # 1 UNK
1382 1 1 0.000000 22.888901 41.948799 13.582900 # 1 UNK
1383 1 1 0.000000 36.567902 32.860001 15.497700 # 1 UNK
1384 1 1 0.000000 42.656502 46.592098 35.450401 # 1 UNK
1385 1 1 0.000000 33.609402 30.832199 14.047100 # 1 UNK
1386 1 1 0.000000 8.778420 43.305599 33.851299 # 1 UNK
1387 1 1 0.000000 41.078899 1.813480 42.611599 # 1 UNK
1388 1 1 0.000000 37.743301 37.784000 9.806690 # 1 UNK
1389 1 1 0.000000 22.212500 36.970600 23.067801 # 1 UNK
1390 1 1 0.000000 45.341400 38.216801 16.298100 # 1 UNK
1391 1 1 0.000000 38.986900 45.205700 14.601000 # 1 UNK
1392 1 1 0.000000 0.745424 36.180401 11.328300 # 1 UNK
1393 1 1 0.000000 18.927401 30.017401 3.589380 # 1 UNK
1394 1 1 0.000000 16.292801 37.159500 25.064699 # 1 UNK
1395 1 1 0.000000 23.938499 39.604301 14.358400 # 1 UNK
1396 1 1 0.000000 38.737801 38.715698 14.795700 # 1 UNK
1397 1 1 0.000000 15.199700 25.548300 28.833700 # 1 UNK
1398 1 1 0.000000 46.138302 38.243900 42.221199 # 1 UNK
1399 1 1 0.000000 3.059080 42.630600 11.944200 # 1 UNK
1400 1 1 0.000000 -0.094253 45.629501 13.396000 # 1 UNK
1401 1 1 0.000000 39.330502 1.093230 39.667999 # 1 UNK
1402 1 1 0.000000 39.982101 45.616299 20.788700 # 1 UNK
1403 1 1 0.000000 5.721200 34.496700 9.096250 # 1 UNK
1404 1 1 0.000000 44.609299 32.908100 13.489000 # 1 UNK
1405 1 1 0.000000 37.812302 34.499599 44.885799 # 1 UNK
1406 1 1 0.000000 44.195599 38.833698 13.778200 # 1 UNK
1407 1 1 0.000000 38.563301 2.720010 28.279400 # 1 UNK
1408 1 1 0.000000 7.602860 42.817902 13.604000 # 1 UNK
1409 1 1 0.000000 8.053070 37.771301 14.486600 # 1 UNK
1410 1 1 0.000000 29.294500 36.209499 9.149910 # 1 UNK
1411 1 1 0.000000 34.314899 32.663399 26.305201 # 1 UNK
1412 1 1 0.000000 10.614800 6.514810 27.044901 # 1 UNK
1413 1 1 0.000000 23.929501 0.243692 12.161400 # 1 UNK
1414 1 1 0.000000 11.936300 43.119499 11.797000 # 1 UNK
1415 1 1 0.000000 45.350300 26.660801 19.116899 # 1 UNK
1416 1 1 0.000000 35.151798 45.105701 31.769400 # 1 UNK
1417 1 1 0.000000 26.510700 43.108398 20.773701 # 1 UNK
1418 1 1 0.000000 10.455100 8.594850 46.782398 # 1 UNK
1419 1 1 0.000000 47.079800 0.970012 9.291470 # 1 UNK
1420 1 1 0.000000 32.071301 33.612099 27.487700 # 1 UNK
1421 1 1 0.000000 13.371500 39.941799 4.959780 # 1 UNK
1422 1 1 0.000000 33.615002 33.387901 14.981100 # 1 UNK
1423 1 1 0.000000 36.930401 36.451698 14.637700 # 1 UNK
1424 1 1 0.000000 8.990390 38.586498 7.433160 # 1 UNK
1425 1 1 0.000000 42.951900 39.444599 11.260600 # 1 UNK
1426 1 1 0.000000 0.383058 9.318580 30.683500 # 1 UNK
1427 1 1 0.000000 5.113350 46.827801 41.756901 # 1 UNK
1428 1 1 0.000000 26.330799 41.220600 25.538601 # 1 UNK
1429 1 1 0.000000 40.474800 0.784064 23.677601 # 1 UNK
1430 1 1 0.000000 16.945400 33.772701 10.392100 # 1 UNK
1431 1 1 0.000000 6.973240 42.511600 46.415501 # 1 UNK
1432 1 1 0.000000 34.178001 42.129700 20.544701 # 1 UNK
1433 1 1 0.000000 14.948200 41.909901 8.172940 # 1 UNK
1434 1 1 0.000000 8.745340 43.416801 24.434299 # 1 UNK
1435 1 1 0.000000 44.534000 30.098301 14.154400 # 1 UNK
1436 1 1 0.000000 46.828300 33.230400 20.641300 # 1 UNK
1437 1 1 0.000000 20.159401 43.265499 12.708600 # 1 UNK
1438 1 1 0.000000 36.191601 43.989101 19.594801 # 1 UNK
1439 1 1 0.000000 0.974877 44.967602 1.403750 # 1 UNK
1440 1 1 0.000000 9.937000 31.051701 17.187500 # 1 UNK
1441 1 1 0.000000 20.999701 37.449600 9.559030 # 1 UNK
1442 1 1 0.000000 2.209470 3.647880 28.719801 # 1 UNK
1443 1 1 0.000000 45.333698 40.972000 12.156100 # 1 UNK
1444 1 1 0.000000 35.483799 34.654099 13.260100 # 1 UNK
1445 1 1 0.000000 27.606800 43.227699 9.138800 # 1 UNK
1446 1 1 0.000000 34.620998 45.680302 28.991899 # 1 UNK
1447 1 1 0.000000 46.631302 28.971300 22.647200 # 1 UNK
1448 1 1 0.000000 44.826099 27.418699 37.419102 # 1 UNK
1449 1 1 0.000000 7.348340 25.764799 30.259800 # 1 UNK
1450 1 1 0.000000 23.324900 43.513302 45.316101 # 1 UNK
1451 1 1 0.000000 32.461102 38.018002 18.179001 # 1 UNK
1452 1 1 0.000000 0.979610 35.158401 8.616720 # 1 UNK
1453 1 1 0.000000 37.840801 37.369999 22.115900 # 1 UNK
1454 1 1 0.000000 45.246601 24.937401 10.150500 # 1 UNK
1455 1 1 0.000000 40.260101 41.841000 22.530199 # 1 UNK
1456 1 1 0.000000 46.237099 18.320000 26.325500 # 1 UNK
1457 1 1 0.000000 40.273300 25.763300 30.756201 # 1 UNK
1458 1 1 0.000000 15.236300 38.742500 11.693000 # 1 UNK
1459 1 1 0.000000 20.066401 6.135520 28.896099 # 1 UNK
1460 1 1 0.000000 26.543600 26.474100 18.450800 # 1 UNK
1461 1 1 0.000000 0.088352 42.367901 15.971300 # 1 UNK
1462 1 1 0.000000 24.718000 13.604000 33.496300 # 1 UNK
1463 1 1 0.000000 24.014400 0.263669 17.744400 # 1 UNK
1464 1 1 0.000000 45.905300 44.775600 22.327400 # 1 UNK
1465 1 1 0.000000 10.925400 44.634899 1.638460 # 1 UNK
1466 1 1 0.000000 37.129902 33.925598 7.457780 # 1 UNK
1467 1 1 0.000000 42.181999 40.443600 20.635401 # 1 UNK
1468 1 1 0.000000 33.405399 0.308781 16.705099 # 1 UNK
1469 1 1 0.000000 9.316660 45.259201 13.730100 # 1 UNK
1470 1 1 0.000000 4.438770 26.872999 19.860701 # 1 UNK
1471 1 1 0.000000 44.188900 44.786598 8.151750 # 1 UNK
1472 1 1 0.000000 19.029499 30.583401 19.957800 # 1 UNK
1473 1 1 0.000000 3.860660 19.412901 39.401402 # 1 UNK
1474 1 1 0.000000 14.656100 37.233299 31.783100 # 1 UNK
1475 1 1 0.000000 27.712299 14.607200 46.278000 # 1 UNK
1476 1 1 0.000000 32.386600 16.646900 39.118900 # 1 UNK
1477 1 1 0.000000 1.167210 2.653960 41.142601 # 1 UNK
1478 1 1 0.000000 14.820900 31.405399 38.216000 # 1 UNK
1479 1 1 0.000000 39.748100 28.143299 42.530499 # 1 UNK
1480 1 1 0.000000 3.644850 30.664301 24.886101 # 1 UNK
1481 1 1 0.000000 17.250700 46.130199 32.649799 # 1 UNK
1482 1 1 0.000000 41.785099 32.894901 43.316399 # 1 UNK
1483 1 1 0.000000 26.035500 5.360890 35.278099 # 1 UNK
1484 1 1 0.000000 7.203260 29.764000 8.350470 # 1 UNK
1485 1 1 0.000000 5.655070 35.050201 29.906099 # 1 UNK
1486 1 1 0.000000 29.134701 7.117510 45.825001 # 1 UNK
1487 1 1 0.000000 1.961380 23.087799 46.539398 # 1 UNK
1488 1 1 0.000000 33.417198 29.910900 24.398100 # 1 UNK
1489 1 1 0.000000 38.695801 33.758499 21.803699 # 1 UNK
1490 1 1 0.000000 18.807899 11.538400 44.968300 # 1 UNK
1491 1 1 0.000000 22.318100 40.679798 41.337399 # 1 UNK
1492 1 1 0.000000 8.467490 37.778702 32.530899 # 1 UNK
1493 1 1 0.000000 12.980300 26.775499 2.293590 # 1 UNK
1494 1 1 0.000000 21.743299 41.651501 29.853100 # 1 UNK
1495 1 1 0.000000 43.101101 27.998501 31.285999 # 1 UNK
1496 1 1 0.000000 11.539000 13.780800 45.794399 # 1 UNK
1497 1 1 0.000000 4.327720 16.908899 25.130600 # 1 UNK
1498 1 1 0.000000 40.372799 7.552990 0.961084 # 1 UNK
1499 1 1 0.000000 27.948200 28.828800 29.619801 # 1 UNK
1500 1 1 0.000000 3.918860 15.111500 30.392900 # 1 UNK
1501 1 1 0.000000 29.503099 45.145100 20.261900 # 1 UNK
1502 1 1 0.000000 13.796500 9.290770 26.290300 # 1 UNK
1503 1 1 0.000000 6.028710 4.818940 35.760101 # 1 UNK
1504 1 1 0.000000 18.199400 0.857621 42.953300 # 1 UNK
1505 1 1 0.000000 17.034300 15.100100 40.156101 # 1 UNK
1506 1 1 0.000000 22.181299 45.700001 30.145100 # 1 UNK
1507 1 1 0.000000 20.573400 30.103201 17.835300 # 1 UNK
1508 1 1 0.000000 42.382702 20.366800 26.502399 # 1 UNK
1509 1 1 0.000000 2.626490 33.643600 44.560600 # 1 UNK
1510 1 1 0.000000 18.804600 10.067000 34.306400 # 1 UNK
1511 1 1 0.000000 22.796400 12.803400 42.309399 # 1 UNK
1512 1 1 0.000000 41.131001 0.643660 31.543400 # 1 UNK
1513 1 1 0.000000 34.599998 12.318100 38.448002 # 1 UNK
1514 1 1 0.000000 8.575720 26.591600 39.619701 # 1 UNK
1515 1 1 0.000000 8.995110 0.936985 41.236500 # 1 UNK
1516 1 1 0.000000 31.195101 31.881300 34.771999 # 1 UNK
1517 1 1 0.000000 22.016600 4.403640 43.898102 # 1 UNK
1518 1 1 0.000000 13.149300 6.818060 27.682501 # 1 UNK
1519 1 1 0.000000 24.377001 39.156700 42.375702 # 1 UNK
1520 1 1 0.000000 31.455999 10.640500 38.355701 # 1 UNK
1521 1 1 0.000000 2.802290 29.271200 33.228298 # 1 UNK
1522 1 1 0.000000 8.052970 16.983500 33.082802 # 1 UNK
1523 1 1 0.000000 22.798500 37.290001 18.030600 # 1 UNK
1524 1 1 0.000000 46.803398 40.979301 42.722599 # 1 UNK
1525 1 1 0.000000 23.500999 38.496399 6.523100 # 1 UNK
1526 1 1 0.000000 29.787399 16.368601 40.576401 # 1 UNK
1527 1 1 0.000000 36.076199 18.512699 27.017200 # 1 UNK
1528 1 1 0.000000 13.354100 0.443343 44.268799 # 1 UNK
1529 1 1 0.000000 16.953100 29.127001 45.152000 # 1 UNK
1530 1 1 0.000000 27.338900 44.310699 30.830601 # 1 UNK
1531 1 1 0.000000 26.106800 44.952801 1.286090 # 1 UNK
1532 1 1 0.000000 32.481899 23.869301 39.792500 # 1 UNK
1533 1 1 0.000000 0.211626 31.461700 35.382099 # 1 UNK
1534 1 1 0.000000 30.607800 43.513599 22.670500 # 1 UNK
1535 1 1 0.000000 2.435360 27.719400 13.039100 # 1 UNK
1536 1 1 0.000000 45.526402 44.215199 2.612190 # 1 UNK
1537 1 1 0.000000 45.599499 35.189701 15.172400 # 1 UNK
1538 1 1 0.000000 1.505100 44.745300 33.932598 # 1 UNK
1539 1 1 0.000000 31.379801 1.817680 37.090302 # 1 UNK
1540 1 1 0.000000 34.115101 16.452400 26.219999 # 1 UNK
1541 1 1 0.000000 13.385500 23.051800 28.026501 # 1 UNK
1542 1 1 0.000000 34.448898 2.818560 33.473000 # 1 UNK
1543 1 1 0.000000 27.876101 24.566200 28.214300 # 1 UNK
1544 1 1 0.000000 16.448200 22.369801 26.813000 # 1 UNK
1545 1 1 0.000000 10.886200 16.387400 45.047298 # 1 UNK
1546 1 1 0.000000 14.214600 32.394798 20.348400 # 1 UNK
1547 1 1 0.000000 13.583000 25.254700 40.727798 # 1 UNK
1548 1 1 0.000000 41.212700 22.828400 36.942001 # 1 UNK
1549 1 1 0.000000 28.174900 19.796301 27.596701 # 1 UNK
1550 1 1 0.000000 3.475450 36.442501 33.234901 # 1 UNK
1551 1 1 0.000000 10.958600 18.936399 43.541302 # 1 UNK
1552 1 1 0.000000 35.762901 27.769100 30.984200 # 1 UNK
1553 1 1 0.000000 18.161600 10.268600 30.358200 # 1 UNK
1554 1 1 0.000000 41.397400 12.743500 45.192402 # 1 UNK
1555 1 1 0.000000 4.655430 5.185920 42.706200 # 1 UNK
1556 1 1 0.000000 20.520300 23.733299 32.145302 # 1 UNK
1557 1 1 0.000000 11.162000 11.826300 36.324799 # 1 UNK
1558 1 1 0.000000 6.323470 36.277401 34.107498 # 1 UNK
1559 1 1 0.000000 15.271600 3.587840 42.549999 # 1 UNK
1560 1 1 0.000000 31.329599 38.343201 25.320601 # 1 UNK
1561 1 1 0.000000 17.387800 24.224501 42.918499 # 1 UNK
1562 1 1 0.000000 1.442640 45.920799 22.545000 # 1 UNK
1563 1 1 0.000000 10.210500 5.079640 34.845798 # 1 UNK
1564 1 1 0.000000 7.848080 33.641800 26.662001 # 1 UNK
1565 1 1 0.000000 45.321899 16.121500 29.932100 # 1 UNK
1566 1 1 0.000000 40.556702 46.186401 26.641800 # 1 UNK
1567 1 1 0.000000 6.166090 10.498700 38.762699 # 1 UNK
1568 1 1 0.000000 9.213930 3.999390 37.644798 # 1 UNK
1569 1 1 0.000000 19.219801 13.364800 30.755501 # 1 UNK
1570 1 1 0.000000 29.361700 3.572540 26.946800 # 1 UNK
1571 1 1 0.000000 20.992100 24.950800 27.559000 # 1 UNK
1572 1 1 0.000000 13.545500 42.199501 31.629601 # 1 UNK
1573 1 1 0.000000 9.462560 15.805800 25.058100 # 1 UNK
1574 1 1 0.000000 21.974400 31.268700 33.866001 # 1 UNK
1575 1 1 0.000000 2.603100 45.740200 41.344101 # 1 UNK
1576 1 1 0.000000 25.245399 19.571501 38.191502 # 1 UNK
1577 1 1 0.000000 9.624700 43.596298 42.466499 # 1 UNK
1578 1 1 0.000000 11.363800 27.740999 36.918301 # 1 UNK
1579 1 1 0.000000 32.405499 45.072899 4.218630 # 1 UNK
1580 1 1 0.000000 18.688999 17.322300 38.223598 # 1 UNK
1581 1 1 0.000000 14.757300 18.984699 27.417200 # 1 UNK
1582 1 1 0.000000 22.135700 1.139970 31.268000 # 1 UNK
1583 1 1 0.000000 18.684401 40.709301 25.558001 # 1 UNK
1584 1 1 0.000000 8.812150 10.523700 23.922300 # 1 UNK
1585 1 1 0.000000 34.179699 3.003530 45.068901 # 1 UNK
1586 1 1 0.000000 44.311600 21.023399 30.339100 # 1 UNK
1587 1 1 0.000000 14.168100 44.642399 30.502701 # 1 UNK
1588 1 1 0.000000 40.669800 1.801420 26.654200 # 1 UNK
1589 1 1 0.000000 1.345860 15.013600 25.096701 # 1 UNK
1590 1 1 0.000000 23.320999 46.445202 45.855598 # 1 UNK
1591 1 1 0.000000 7.286610 25.006901 46.078201 # 1 UNK
1592 1 1 0.000000 32.984501 6.874760 43.503899 # 1 UNK
1593 1 1 0.000000 1.012420 28.098700 45.537102 # 1 UNK
1594 1 1 0.000000 37.643700 39.272701 2.834480 # 1 UNK
1595 1 1 0.000000 12.396800 2.421350 46.030701 # 1 UNK
1596 1 1 0.000000 33.652500 14.020100 45.229698 # 1 UNK
1597 1 1 0.000000 24.642099 25.784100 31.816099 # 1 UNK
1598 1 1 0.000000 40.566399 35.742100 16.882401 # 1 UNK
1599 1 1 0.000000 21.618401 44.636902 0.210817 # 1 UNK
1600 1 1 0.000000 20.798000 23.823700 34.808498 # 1 UNK
1601 1 1 0.000000 2.181450 23.261600 40.415298 # 1 UNK
1602 1 1 0.000000 32.859699 16.100901 30.162001 # 1 UNK
1603 1 1 0.000000 2.084430 33.392101 0.221432 # 1 UNK
1604 1 1 0.000000 15.700100 39.095299 37.419601 # 1 UNK
1605 1 1 0.000000 3.935950 22.003401 43.402500 # 1 UNK
1606 1 1 0.000000 20.125799 45.140499 14.852100 # 1 UNK
1607 1 1 0.000000 9.622950 13.946000 43.913601 # 1 UNK
1608 1 1 0.000000 12.582100 6.781660 42.652599 # 1 UNK
1609 1 1 0.000000 34.368301 35.146599 4.112740 # 1 UNK
1610 1 1 0.000000 34.732201 15.004300 39.594002 # 1 UNK
1611 1 1 0.000000 39.818802 20.805599 45.667400 # 1 UNK
1612 1 1 0.000000 38.726898 17.294600 40.120602 # 1 UNK
1613 1 1 0.000000 43.811199 29.241600 4.912470 # 1 UNK
1614 1 1 0.000000 35.814602 6.506100 33.698101 # 1 UNK
1615 1 1 0.000000 12.047500 33.326000 36.375198 # 1 UNK
1616 1 1 0.000000 4.826170 26.538401 32.064201 # 1 UNK
1617 1 1 0.000000 35.939098 40.611698 33.234699 # 1 UNK
1618 1 1 0.000000 12.796800 8.701430 34.236099 # 1 UNK
1619 1 1 0.000000 29.054701 32.705101 0.797946 # 1 UNK
1620 1 1 0.000000 35.335701 6.956950 41.838699 # 1 UNK
1621 1 1 0.000000 21.153999 26.068701 33.530201 # 1 UNK
1622 1 1 0.000000 20.749100 0.799454 43.615799 # 1 UNK
1623 1 1 0.000000 3.329130 13.494900 44.513302 # 1 UNK
1624 1 1 0.000000 12.357300 16.302799 38.825699 # 1 UNK
1625 1 1 0.000000 1.032350 45.518700 31.247601 # 1 UNK
1626 1 1 0.000000 23.307400 26.717600 21.968599 # 1 UNK
1627 1 1 0.000000 22.894699 18.619801 40.183300 # 1 UNK
1628 1 1 0.000000 7.487830 10.606000 32.020302 # 1 UNK
1629 1 1 0.000000 28.571699 16.197201 32.396000 # 1 UNK
1630 1 1 0.000000 43.835400 24.771999 46.671501 # 1 UNK
1631 1 1 0.000000 36.006199 36.977402 11.896900 # 1 UNK
1632 1 1 0.000000 28.453800 39.467098 45.091702 # 1 UNK
1633 1 1 0.000000 25.029200 9.859200 36.689999 # 1 UNK
1634 1 1 0.000000 19.433901 35.563801 31.611900 # 1 UNK
1635 1 1 0.000000 45.578999 29.328501 39.066601 # 1 UNK
1636 1 1 0.000000 2.284880 17.363600 27.030399 # 1 UNK
1637 1 1 0.000000 34.745899 44.091702 23.452999 # 1 UNK
1638 1 1 0.000000 42.828701 46.332298 2.638620 # 1 UNK
1639 1 1 0.000000 14.574200 7.237500 44.344398 # 1 UNK
1640 1 1 0.000000 2.911740 8.211480 26.123400 # 1 UNK
1641 1 1 0.000000 21.121901 24.183001 42.308300 # 1 UNK
1642 1 1 0.000000 42.191898 23.184401 27.104700 # 1 UNK
1643 1 1 0.000000 5.568380 1.381400 38.074001 # 1 UNK
1644 1 1 0.000000 2.042030 17.375099 40.046501 # 1 UNK
1645 1 1 0.000000 3.893300 9.503450 41.884102 # 1 UNK
1646 1 1 0.000000 5.658710 12.193200 44.871300 # 1 UNK
1647 1 1 0.000000 5.864700 15.677600 42.229000 # 1 UNK
1648 1 1 0.000000 18.612801 14.911700 34.380100 # 1 UNK
1649 1 1 0.000000 12.144700 27.893999 18.211500 # 1 UNK
1650 1 1 0.000000 46.116901 6.390170 30.005600 # 1 UNK
1651 1 1 0.000000 28.146400 4.063610 37.365398 # 1 UNK
1652 1 1 0.000000 3.489390 37.723999 40.602001 # 1 UNK
1653 1 1 0.000000 18.442499 21.313000 40.615799 # 1 UNK
1654 1 1 0.000000 19.146900 9.017240 36.770401 # 1 UNK
1655 1 1 0.000000 37.473400 29.634899 29.506800 # 1 UNK
1656 1 1 0.000000 30.604700 11.826500 33.287601 # 1 UNK
1657 1 1 0.000000 11.313100 3.124450 33.111698 # 1 UNK
1658 1 1 0.000000 3.781210 27.712799 25.030001 # 1 UNK
1659 1 1 0.000000 22.282301 37.601398 27.127399 # 1 UNK
1660 1 1 0.000000 35.878502 37.954601 31.876699 # 1 UNK
1661 1 1 0.000000 22.553801 45.463200 36.572601 # 1 UNK
1662 1 1 0.000000 42.220299 44.158298 25.866199 # 1 UNK
1663 1 1 0.000000 14.578500 32.631802 16.711000 # 1 UNK
1664 1 1 0.000000 45.825401 39.356899 39.651600 # 1 UNK
1665 1 1 0.000000 30.257900 22.436100 27.834400 # 1 UNK
1666 1 1 0.000000 18.199600 10.481300 27.570299 # 1 UNK
1667 1 1 0.000000 20.729799 10.045400 28.941900 # 1 UNK
1668 1 1 0.000000 38.666599 35.612999 33.136501 # 1 UNK
1669 1 1 0.000000 23.637100 9.165610 25.802299 # 1 UNK
1670 1 1 0.000000 41.196701 35.862202 25.649300 # 1 UNK
1671 1 1 0.000000 9.623050 39.278099 34.741199 # 1 UNK
1672 1 1 0.000000 6.392450 9.548360 24.670900 # 1 UNK
1673 1 1 0.000000 15.637500 21.985701 38.889400 # 1 UNK
1674 1 1 0.000000 18.946400 34.577202 34.844799 # 1 UNK
1675 1 1 0.000000 43.267899 43.112301 1.078290 # 1 UNK
1676 1 1 0.000000 35.693401 3.441330 28.347200 # 1 UNK
1677 1 1 0.000000 26.287800 26.159500 29.653200 # 1 UNK
1678 1 1 0.000000 14.640500 18.450300 37.019001 # 1 UNK
1679 1 1 0.000000 46.450298 18.279600 34.300201 # 1 UNK
1680 1 1 0.000000 14.428100 0.841818 36.589699 # 1 UNK
1681 1 1 0.000000 1.482700 8.968330 37.231998 # 1 UNK
1682 1 1 0.000000 25.965500 24.600100 46.085701 # 1 UNK
1683 1 1 0.000000 15.579800 45.240101 34.552299 # 1 UNK
1684 1 1 0.000000 17.904100 11.674200 36.405102 # 1 UNK
1685 1 1 0.000000 42.472801 10.185600 26.362499 # 1 UNK
1686 1 1 0.000000 21.348499 8.860790 46.517399 # 1 UNK
1687 1 1 0.000000 29.192400 42.277302 29.870800 # 1 UNK
1688 1 1 0.000000 27.848801 4.905500 29.123800 # 1 UNK
1689 1 1 0.000000 6.842110 41.276199 40.543400 # 1 UNK
1690 1 1 0.000000 35.418701 45.686600 46.459099 # 1 UNK
1691 1 1 0.000000 9.856750 35.073002 43.411400 # 1 UNK
1692 1 1 0.000000 2.223740 39.532101 20.928801 # 1 UNK
1693 1 1 0.000000 0.716050 30.521200 26.463301 # 1 UNK
1694 1 1 0.000000 36.582001 19.094299 35.790501 # 1 UNK
1695 1 1 0.000000 16.848101 32.931599 32.419998 # 1 UNK
1696 1 1 0.000000 8.648590 17.742901 38.725601 # 1 UNK
1697 1 1 0.000000 43.007702 39.290298 24.888700 # 1 UNK
1698 1 1 0.000000 5.314380 24.403099 36.962200 # 1 UNK
1699 1 1 0.000000 44.268501 2.829850 25.731501 # 1 UNK
1700 1 1 0.000000 0.303326 44.801701 37.090199 # 1 UNK
1701 1 1 0.000000 28.615200 7.013680 37.907200 # 1 UNK
1702 1 1 0.000000 43.541801 10.099500 40.859299 # 1 UNK
1703 1 1 0.000000 42.252701 1.055590 45.070000 # 1 UNK
1704 1 1 0.000000 8.171890 13.499800 29.175900 # 1 UNK
1705 1 1 0.000000 44.762199 44.058399 36.874802 # 1 UNK
1706 1 1 0.000000 6.676940 38.773602 20.446199 # 1 UNK
1707 1 1 0.000000 14.603300 31.204700 35.507000 # 1 UNK
1708 1 1 0.000000 0.463067 37.041401 14.905700 # 1 UNK
1709 1 1 0.000000 19.471100 28.802601 43.834301 # 1 UNK
1710 1 1 0.000000 18.146601 39.204700 6.444210 # 1 UNK
1711 1 1 0.000000 18.842501 30.610500 41.346401 # 1 UNK
1712 1 1 0.000000 6.620860 7.795210 35.405800 # 1 UNK
1713 1 1 0.000000 1.703830 17.418900 32.993099 # 1 UNK
1714 1 1 0.000000 3.316970 19.778601 41.972301 # 1 UNK
1715 1 1 0.000000 1.180680 38.279900 33.688099 # 1 UNK
1716 1 1 0.000000 45.502499 29.649200 25.135401 # 1 UNK
1717 1 1 0.000000 24.151600 28.962999 24.391600 # 1 UNK
1718 1 1 0.000000 6.521600 38.075401 24.477900 # 1 UNK
1719 1 1 0.000000 41.606998 31.986401 31.940399 # 1 UNK
1720 1 1 0.000000 27.405800 31.850000 32.473598 # 1 UNK
1721 1 1 0.000000 44.095798 16.801600 24.705799 # 1 UNK
1722 1 1 0.000000 42.419498 3.164230 32.917801 # 1 UNK
1723 1 1 0.000000 23.517000 44.077400 33.141602 # 1 UNK
1724 1 1 0.000000 9.835680 16.831600 30.700800 # 1 UNK
1725 1 1 0.000000 32.472301 38.817600 43.904400 # 1 UNK
1726 1 1 0.000000 10.648900 30.447599 43.255001 # 1 UNK
1727 1 1 0.000000 31.273899 13.622700 37.138901 # 1 UNK
1728 1 1 0.000000 46.534000 14.442400 31.727301 # 1 UNK
1729 1 1 0.000000 38.688900 44.043400 4.208480 # 1 UNK
1730 1 1 0.000000 39.092400 44.179401 30.573500 # 1 UNK
1731 1 1 0.000000 31.984600 24.519800 27.418501 # 1 UNK
1732 1 1 0.000000 20.486099 16.500200 24.486700 # 1 UNK
1733 1 1 0.000000 2.941930 35.862801 16.082001 # 1 UNK
1734 1 1 0.000000 36.396500 1.611950 26.047001 # 1 UNK
1735 1 1 0.000000 42.483601 15.743100 29.639299 # 1 UNK
1736 1 1 0.000000 12.348900 34.483898 19.452101 # 1 UNK
1737 1 1 0.000000 6.989010 5.460100 33.328602 # 1 UNK
1738 1 1 0.000000 37.677101 8.290800 29.341000 # 1 UNK
1739 1 1 0.000000 5.466610 12.698100 28.177401 # 1 UNK
1740 1 1 0.000000 18.399599 23.563601 30.275200 # 1 UNK
1741 1 1 0.000000 5.787760 29.779400 11.839500 # 1 UNK
1742 1 1 0.000000 17.793900 31.383400 43.729801 # 1 UNK
1743 1 1 0.000000 17.322701 43.489700 11.099200 # 1 UNK
1744 1 1 0.000000 27.959999 24.471500 9.803330 # 1 UNK
1745 1 1 0.000000 5.748730 37.710400 42.875599 # 1 UNK
1746 1 1 0.000000 19.512899 41.716099 31.280800 # 1 UNK
1747 1 1 0.000000 13.785400 26.252501 34.964500 # 1 UNK
1748 1 1 0.000000 1.118330 18.878099 36.951900 # 1 UNK
1749 1 1 0.000000 14.497100 30.892300 32.584400 # 1 UNK
1750 1 1 0.000000 1.683460 47.038799 37.918900 # 1 UNK
1751 1 1 0.000000 6.329460 18.190901 45.430099 # 1 UNK
1752 1 1 0.000000 10.680100 22.443600 25.317200 # 1 UNK
1753 1 1 0.000000 14.163200 33.612202 4.070630 # 1 UNK
1754 1 1 0.000000 26.607000 39.493900 0.833020 # 1 UNK
1755 1 1 0.000000 29.850300 25.698999 7.478050 # 1 UNK
1756 1 1 0.000000 0.538073 24.390400 34.694698 # 1 UNK
1757 1 1 0.000000 40.303699 23.678101 24.500900 # 1 UNK
1758 1 1 0.000000 30.990900 18.972200 39.999199 # 1 UNK
1759 1 1 0.000000 21.808201 11.832700 35.598900 # 1 UNK
1760 1 1 0.000000 6.212570 39.886002 32.155899 # 1 UNK
1761 1 1 0.000000 28.698200 23.334499 24.533701 # 1 UNK
1762 1 1 0.000000 43.212200 45.153599 28.318800 # 1 UNK
1763 1 1 0.000000 30.418100 35.487301 24.186800 # 1 UNK
1764 1 1 0.000000 19.577299 12.612000 27.893801 # 1 UNK
1765 1 1 0.000000 22.565701 21.645399 34.896099 # 1 UNK
1766 1 1 0.000000 1.032400 18.846201 43.523602 # 1 UNK
1767 1 1 0.000000 14.710300 33.796299 36.164101 # 1 UNK
1768 1 1 0.000000 28.013700 45.111599 38.199501 # 1 UNK
1769 1 1 0.000000 30.254101 37.472401 4.562530 # 1 UNK
1770 1 1 0.000000 29.512501 2.603610 46.917000 # 1 UNK
1771 1 1 0.000000 19.257500 8.199700 26.632401 # 1 UNK
1772 1 1 0.000000 46.360802 38.498299 4.749640 # 1 UNK
1773 1 1 0.000000 1.652880 46.612701 25.849800 # 1 UNK
1774 1 1 0.000000 40.917801 15.172300 39.141201 # 1 UNK
1775 1 1 0.000000 3.608440 1.158840 25.157700 # 1 UNK
1776 1 1 0.000000 17.684000 21.131001 31.047501 # 1 UNK
1777 1 1 0.000000 11.629700 5.967020 32.787300 # 1 UNK
1778 1 1 0.000000 32.965199 6.611620 40.365501 # 1 UNK
1779 1 1 0.000000 4.790880 6.891130 40.607399 # 1 UNK
1780 1 1 0.000000 32.973099 3.318820 40.602600 # 1 UNK
1781 1 1 0.000000 1.036140 35.883598 37.808998 # 1 UNK
1782 1 1 0.000000 39.867901 25.397800 10.045400 # 1 UNK
1783 1 1 0.000000 3.506780 16.041901 34.712399 # 1 UNK
1784 1 1 0.000000 24.061501 32.300301 14.249700 # 1 UNK
1785 1 1 0.000000 37.467701 20.644501 44.235600 # 1 UNK
1786 1 1 0.000000 9.139370 13.809600 37.067299 # 1 UNK
1787 1 1 0.000000 33.516602 44.929901 7.986400 # 1 UNK
1788 1 1 0.000000 21.052799 29.458099 30.692101 # 1 UNK
1789 1 1 0.000000 30.494101 11.117000 25.804600 # 1 UNK
1790 1 1 0.000000 12.422400 26.197500 30.929399 # 1 UNK
1791 1 1 0.000000 7.131050 27.868799 13.739600 # 1 UNK
1792 1 1 0.000000 10.893100 21.529499 27.915600 # 1 UNK
1793 1 1 0.000000 37.441002 24.709700 44.446899 # 1 UNK
1794 1 1 0.000000 4.571500 41.507999 34.533100 # 1 UNK
1795 1 1 0.000000 42.505901 28.935200 23.438601 # 1 UNK
1796 1 1 0.000000 5.097150 12.415800 24.263100 # 1 UNK
1797 1 1 0.000000 2.353010 39.698601 42.250702 # 1 UNK
1798 1 1 0.000000 3.908050 46.201199 36.288601 # 1 UNK
1799 1 1 0.000000 42.446701 11.675200 34.810101 # 1 UNK
1800 1 1 0.000000 16.723600 1.178790 40.750301 # 1 UNK
1801 1 1 0.000000 35.017700 8.728860 29.296400 # 1 UNK
1802 1 1 0.000000 31.174900 30.663900 4.012850 # 1 UNK
1803 1 1 0.000000 13.172700 39.261398 18.540501 # 1 UNK
1804 1 1 0.000000 0.455200 43.029499 4.042320 # 1 UNK
1805 1 1 0.000000 24.070200 5.751880 22.915300 # 1 UNK
1806 1 1 0.000000 4.485870 43.088699 40.209999 # 1 UNK
1807 1 1 0.000000 15.959100 29.705900 26.383900 # 1 UNK
1808 1 1 0.000000 42.926201 29.501801 26.193001 # 1 UNK
1809 1 1 0.000000 20.145800 41.394600 21.725401 # 1 UNK
1810 1 1 0.000000 35.626301 16.957100 34.139500 # 1 UNK
1811 1 1 0.000000 19.636200 29.725401 33.042999 # 1 UNK
1812 1 1 0.000000 32.760601 42.711498 41.211899 # 1 UNK
1813 1 1 0.000000 6.812690 31.646900 42.333099 # 1 UNK
1814 1 1 0.000000 22.619699 43.182701 41.770802 # 1 UNK
1815 1 1 0.000000 45.834599 4.965080 32.699299 # 1 UNK
1816 1 1 0.000000 28.574100 42.276100 26.965799 # 1 UNK
1817 1 1 0.000000 37.478699 4.394240 45.488602 # 1 UNK
1818 1 1 0.000000 0.796092 37.222000 40.171501 # 1 UNK
1819 1 1 0.000000 12.528700 43.062599 43.039600 # 1 UNK
1820 1 1 0.000000 7.782960 32.363098 39.792999 # 1 UNK
1821 1 1 0.000000 26.880899 2.495470 28.073500 # 1 UNK
1822 1 1 0.000000 24.601500 38.570599 23.462799 # 1 UNK
1823 1 1 0.000000 1.005780 23.040001 25.221100 # 1 UNK
1824 1 1 0.000000 30.067600 13.016700 41.235298 # 1 UNK
1825 1 1 0.000000 38.144001 0.607922 4.932360 # 1 UNK
1826 1 1 0.000000 28.659300 13.229200 34.838001 # 1 UNK
1827 1 1 0.000000 9.381980 43.471699 20.342199 # 1 UNK
1828 1 1 0.000000 36.686401 25.548599 35.386700 # 1 UNK
1829 1 1 0.000000 46.596901 40.857201 37.296700 # 1 UNK
1830 1 1 0.000000 7.581630 15.466100 44.621700 # 1 UNK
1831 1 1 0.000000 46.312401 36.499401 2.761260 # 1 UNK
1832 1 1 0.000000 0.514286 28.540800 34.679901 # 1 UNK
1833 1 1 0.000000 12.976200 15.005100 34.140800 # 1 UNK
1834 1 1 0.000000 7.546380 23.827999 6.079610 # 1 UNK
1835 1 1 0.000000 7.105830 43.934299 22.170500 # 1 UNK
1836 1 1 0.000000 26.062799 13.856600 25.143299 # 1 UNK
1837 1 1 0.000000 17.486000 44.388199 36.515499 # 1 UNK
1838 1 1 0.000000 34.999199 40.368698 12.282800 # 1 UNK
1839 1 1 0.000000 32.563900 4.381950 24.820999 # 1 UNK
1840 1 1 0.000000 29.808001 17.277599 38.014198 # 1 UNK
1841 1 1 0.000000 29.904200 44.923698 25.746099 # 1 UNK
1842 1 1 0.000000 42.211601 40.856201 39.443100 # 1 UNK
1843 1 1 0.000000 28.850100 32.440300 7.312820 # 1 UNK
1844 1 1 0.000000 7.909860 12.075000 42.905899 # 1 UNK
1845 1 1 0.000000 3.316140 1.117890 32.103100 # 1 UNK
1846 1 1 0.000000 0.941719 25.005899 31.826200 # 1 UNK
1847 1 1 0.000000 2.742680 31.408400 10.414400 # 1 UNK
1848 1 1 0.000000 33.562599 0.290257 32.866501 # 1 UNK
1849 1 1 0.000000 35.646301 9.068260 46.167301 # 1 UNK
1850 1 1 0.000000 19.725401 35.660400 0.121493 # 1 UNK
1851 1 1 0.000000 0.914014 8.718290 27.971901 # 1 UNK
1852 1 1 0.000000 15.695400 39.799099 27.374300 # 1 UNK
1853 1 1 0.000000 3.863020 24.091999 19.276899 # 1 UNK
1854 1 1 0.000000 14.963900 46.886799 26.369400 # 1 UNK
1855 1 1 0.000000 33.437698 5.326890 32.383400 # 1 UNK
1856 1 1 0.000000 13.868200 21.903500 25.540701 # 1 UNK
1857 1 1 0.000000 14.911400 35.008099 18.638300 # 1 UNK
1858 1 1 0.000000 0.063141 40.275501 30.636000 # 1 UNK
1859 1 1 0.000000 41.111099 26.990801 22.079100 # 1 UNK
1860 1 1 0.000000 43.744598 43.159901 21.128300 # 1 UNK
1861 1 1 0.000000 28.032700 11.476900 29.051701 # 1 UNK
1862 1 1 0.000000 24.971901 45.973400 40.554401 # 1 UNK
1863 1 1 0.000000 21.749800 7.006860 34.169201 # 1 UNK
1864 1 1 0.000000 26.417999 42.424599 0.467081 # 1 UNK
1865 1 1 0.000000 10.196500 18.532499 41.029202 # 1 UNK
1866 1 1 0.000000 42.106300 25.641800 24.327700 # 1 UNK
1867 1 1 0.000000 40.165901 34.592201 27.795500 # 1 UNK
1868 1 1 0.000000 5.426460 1.581210 33.809200 # 1 UNK
1869 1 1 0.000000 0.647419 4.202390 38.166698 # 1 UNK
1870 1 1 0.000000 39.618198 38.130199 23.868000 # 1 UNK
1871 1 1 0.000000 8.851000 9.377310 27.654100 # 1 UNK
1872 1 1 0.000000 40.535599 24.580601 41.248901 # 1 UNK
1873 1 1 0.000000 19.305000 41.315300 36.489899 # 1 UNK
1874 1 1 0.000000 2.888700 27.772301 40.655300 # 1 UNK
1875 1 1 0.000000 43.945301 2.181470 28.960800 # 1 UNK
1876 1 1 0.000000 14.488900 30.822001 28.746201 # 1 UNK
1877 1 1 0.000000 31.149700 31.081400 27.102600 # 1 UNK
1878 1 1 0.000000 36.955601 39.973701 8.448310 # 1 UNK
1879 1 1 0.000000 35.590801 4.205810 41.111599 # 1 UNK
1880 1 1 0.000000 32.293499 31.225401 40.215302 # 1 UNK
1881 1 1 0.000000 40.183701 11.940200 39.917999 # 1 UNK
1882 1 1 0.000000 21.692801 46.320599 22.205900 # 1 UNK
1883 1 1 0.000000 44.492802 39.596699 29.737700 # 1 UNK
1884 1 1 0.000000 44.295300 16.619499 27.495501 # 1 UNK
1885 1 1 0.000000 8.901270 26.551001 21.088100 # 1 UNK
1886 1 1 0.000000 45.030701 39.972599 32.755299 # 1 UNK
1887 1 1 0.000000 2.710290 11.697800 31.160299 # 1 UNK
1888 1 1 0.000000 35.316601 37.482101 21.037701 # 1 UNK
1889 1 1 0.000000 40.097301 19.129299 34.346802 # 1 UNK
1890 1 1 0.000000 29.356501 19.820900 37.237701 # 1 UNK
1891 1 1 0.000000 28.237400 0.132070 27.446100 # 1 UNK
1892 1 1 0.000000 25.991501 33.350201 27.124399 # 1 UNK
1893 1 1 0.000000 43.359699 38.819801 34.511200 # 1 UNK
1894 1 1 0.000000 1.019430 33.909599 31.106199 # 1 UNK
1895 1 1 0.000000 13.518900 20.820000 41.486801 # 1 UNK
1896 1 1 0.000000 41.613800 5.230810 45.767601 # 1 UNK
1897 1 1 0.000000 35.467899 4.715440 24.534901 # 1 UNK
1898 1 1 0.000000 42.393501 25.348499 39.514900 # 1 UNK
1899 1 1 0.000000 24.276400 28.424400 45.864601 # 1 UNK
1900 1 1 0.000000 43.957199 22.756701 42.111900 # 1 UNK
1901 1 1 0.000000 45.311100 12.222600 26.060600 # 1 UNK
1902 1 1 0.000000 4.995170 9.041280 32.926800 # 1 UNK
1903 1 1 0.000000 38.005199 41.875401 24.226601 # 1 UNK
1904 1 1 0.000000 23.220699 41.431900 16.660000 # 1 UNK
1905 1 1 0.000000 34.123299 40.041401 41.649300 # 1 UNK
1906 1 1 0.000000 44.600201 29.614401 32.807899 # 1 UNK
1907 1 1 0.000000 11.009200 26.690001 0.551011 # 1 UNK
1908 1 1 0.000000 11.698900 26.770901 39.570000 # 1 UNK
1909 1 1 0.000000 21.544901 40.194199 7.804940 # 1 UNK
1910 1 1 0.000000 5.971930 28.093300 6.601760 # 1 UNK
1911 1 1 0.000000 19.011700 35.340801 37.597599 # 1 UNK
1912 1 1 0.000000 33.805599 16.184900 36.878502 # 1 UNK
1913 1 1 0.000000 41.006802 14.181300 36.703098 # 1 UNK
1914 1 1 0.000000 36.253201 25.982599 3.723680 # 1 UNK
1915 1 1 0.000000 40.576000 19.687700 0.982567 # 1 UNK
1916 1 1 0.000000 18.957701 11.189700 41.129299 # 1 UNK
1917 1 1 0.000000 14.747200 15.200400 28.260700 # 1 UNK
1918 1 1 0.000000 15.147800 40.123699 34.481400 # 1 UNK
1919 1 1 0.000000 40.007599 5.002060 23.874399 # 1 UNK
1920 1 1 0.000000 6.513120 6.833980 46.677200 # 1 UNK
1921 1 1 0.000000 27.461399 1.739980 25.333700 # 1 UNK
1922 1 1 0.000000 26.851601 36.180302 13.285800 # 1 UNK
1923 1 1 0.000000 19.451500 34.657299 43.918598 # 1 UNK
1924 1 1 0.000000 24.478600 41.268501 30.606199 # 1 UNK
1925 1 1 0.000000 6.458920 25.120600 20.245300 # 1 UNK
1926 1 1 0.000000 42.920799 33.991501 41.109402 # 1 UNK
1927 1 1 0.000000 1.017230 28.086901 42.472900 # 1 UNK
1928 1 1 0.000000 8.713000 40.939301 31.984200 # 1 UNK
1929 1 1 0.000000 40.569302 30.299500 36.582600 # 1 UNK
1930 1 1 0.000000 5.767160 24.092600 28.946800 # 1 UNK
1931 1 1 0.000000 2.465780 39.012199 23.532200 # 1 UNK
1932 1 1 0.000000 30.891100 44.245201 39.517700 # 1 UNK
1933 1 1 0.000000 29.627001 16.351601 29.941601 # 1 UNK
1934 1 1 0.000000 8.704440 46.396099 43.850201 # 1 UNK
1935 1 1 0.000000 4.646360 26.273300 38.813801 # 1 UNK
1936 1 1 0.000000 1.837250 32.744301 25.498899 # 1 UNK
1937 1 1 0.000000 35.857601 23.842300 39.839699 # 1 UNK
1938 1 1 0.000000 2.440630 10.786600 34.070599 # 1 UNK
1939 1 1 0.000000 24.796900 44.523998 29.604401 # 1 UNK
1940 1 1 0.000000 12.780700 23.227900 43.129002 # 1 UNK
1941 1 1 0.000000 3.914100 8.763470 38.170700 # 1 UNK
1942 1 1 0.000000 24.176001 24.234501 3.402190 # 1 UNK
1943 1 1 0.000000 34.476501 5.521420 29.989100 # 1 UNK
1944 1 1 0.000000 37.175900 43.579399 26.100300 # 1 UNK
1945 1 1 0.000000 16.771700 2.151020 38.289398 # 1 UNK
1946 1 1 0.000000 46.395500 28.473499 28.830099 # 1 UNK
1947 1 1 0.000000 11.254600 22.164801 37.780899 # 1 UNK
1948 1 1 0.000000 13.066000 43.234001 4.765990 # 1 UNK
1949 1 1 0.000000 29.608900 23.907600 42.813301 # 1 UNK
1950 1 1 0.000000 0.464126 2.068640 36.282600 # 1 UNK
1951 1 1 0.000000 42.061501 46.106499 22.356100 # 1 UNK
1952 1 1 0.000000 29.081600 25.072201 22.479401 # 1 UNK
1953 1 1 0.000000 20.120501 43.842098 25.608801 # 1 UNK
1954 1 1 0.000000 32.757900 39.292099 46.497200 # 1 UNK
1955 1 1 0.000000 37.646999 20.573900 25.113199 # 1 UNK
1956 1 1 0.000000 19.006100 46.474701 23.834400 # 1 UNK
1957 1 1 0.000000 4.128730 33.461300 38.055599 # 1 UNK
1958 1 1 0.000000 37.565701 19.425800 41.634899 # 1 UNK
1959 1 1 0.000000 15.646300 40.114399 43.223499 # 1 UNK
1960 1 1 0.000000 17.761200 40.934200 38.791401 # 1 UNK
1961 1 1 0.000000 33.476101 0.518985 4.913490 # 1 UNK
1962 1 1 0.000000 26.613701 25.583200 14.531600 # 1 UNK
1963 1 1 0.000000 25.006800 41.491100 4.968160 # 1 UNK
1964 1 1 0.000000 26.107901 16.534100 44.782799 # 1 UNK
1965 1 1 0.000000 34.893299 45.372299 2.021520 # 1 UNK
1966 1 1 0.000000 27.895901 33.038700 29.667700 # 1 UNK
1967 1 1 0.000000 6.189720 6.179750 38.043800 # 1 UNK
1968 1 1 0.000000 28.519501 46.495399 3.052030 # 1 UNK
1969 1 1 0.000000 28.182501 12.665500 26.769600 # 1 UNK
1970 1 1 0.000000 3.754330 44.780399 0.755847 # 1 UNK
1971 1 1 0.000000 42.227901 35.570301 33.048000 # 1 UNK
1972 1 1 0.000000 20.894800 35.118698 2.993620 # 1 UNK
1973 1 1 0.000000 18.803900 38.720600 42.786201 # 1 UNK
1974 1 1 0.000000 5.066240 31.959299 40.503700 # 1 UNK
1975 1 1 0.000000 34.448898 43.157799 4.745460 # 1 UNK
1976 1 1 0.000000 11.683700 46.020100 20.957199 # 1 UNK
1977 1 1 0.000000 42.240898 17.052000 42.698200 # 1 UNK
1978 1 1 0.000000 26.897699 24.607201 43.459801 # 1 UNK
1979 1 1 0.000000 6.137620 30.289000 27.996799 # 1 UNK
1980 1 1 0.000000 43.800999 22.974501 37.258701 # 1 UNK
1981 1 1 0.000000 4.346720 44.272099 42.889301 # 1 UNK
1982 1 1 0.000000 42.804199 25.539400 2.619900 # 1 UNK
1983 1 1 0.000000 5.397230 38.009201 30.047501 # 1 UNK
1984 1 1 0.000000 9.519240 37.210899 41.263100 # 1 UNK
1985 1 1 0.000000 12.290700 28.637100 23.281200 # 1 UNK
1986 1 1 0.000000 38.752300 26.374901 46.634602 # 1 UNK
1987 1 1 0.000000 41.164501 0.039846 37.683102 # 1 UNK
1988 1 1 0.000000 46.647999 33.438801 24.151100 # 1 UNK
1989 1 1 0.000000 20.177299 12.802600 43.151901 # 1 UNK
1990 1 1 0.000000 35.851002 36.820702 23.668301 # 1 UNK
1991 1 1 0.000000 45.615898 34.198700 4.030030 # 1 UNK
1992 1 1 0.000000 5.421370 40.949799 2.671600 # 1 UNK
1993 1 1 0.000000 39.053902 31.972401 34.722099 # 1 UNK
1994 1 1 0.000000 37.364101 11.824100 41.332199 # 1 UNK
1995 1 1 0.000000 31.247900 43.701000 16.099501 # 1 UNK
1996 1 1 0.000000 45.858501 30.904100 11.963100 # 1 UNK
1997 1 1 0.000000 1.780040 26.605301 1.817360 # 1 UNK
1998 1 1 0.000000 26.868200 34.541100 45.626598 # 1 UNK
1999 1 1 0.000000 40.235500 7.536320 30.230000 # 1 UNK
2000 1 1 0.000000 3.243680 32.006401 42.600101 # 1 UNK
2001 1 1 0.000000 22.635700 39.208698 35.821201 # 1 UNK
2002 1 1 0.000000 29.531300 40.077301 27.970400 # 1 UNK
2003 1 1 0.000000 26.583099 3.474420 32.390900 # 1 UNK
2004 1 1 0.000000 40.977402 4.793550 35.437000 # 1 UNK
2005 1 1 0.000000 22.787100 24.265499 23.626101 # 1 UNK
2006 1 1 0.000000 8.286020 28.703699 29.472300 # 1 UNK
2007 1 1 0.000000 25.342899 33.033600 37.196999 # 1 UNK
2008 1 1 0.000000 21.817301 12.152900 25.304001 # 1 UNK
2009 1 1 0.000000 40.188301 33.154499 36.660500 # 1 UNK
2010 1 1 0.000000 28.285900 25.247000 19.968500 # 1 UNK
2011 1 1 0.000000 8.340840 19.670601 46.904202 # 1 UNK
2012 1 1 0.000000 24.935699 23.635799 25.192600 # 1 UNK
2013 1 1 0.000000 7.199380 27.997700 31.728701 # 1 UNK
2014 1 1 0.000000 4.999830 40.741100 38.631199 # 1 UNK
2015 1 1 0.000000 34.397598 34.863701 28.042601 # 1 UNK
2016 1 1 0.000000 24.391199 9.787410 43.245499 # 1 UNK
2017 1 1 0.000000 46.682499 40.090302 14.517500 # 1 UNK
2018 1 1 0.000000 1.338350 32.655998 28.307699 # 1 UNK
2019 1 1 0.000000 14.372600 37.718102 45.733898 # 1 UNK
2020 1 1 0.000000 13.797400 19.552799 33.629700 # 1 UNK
2021 1 1 0.000000 15.388200 7.639810 36.366100 # 1 UNK
2022 1 1 0.000000 9.265840 34.572800 24.670200 # 1 UNK
2023 1 1 0.000000 1.288090 42.011700 40.515301 # 1 UNK
2024 1 1 0.000000 21.671600 13.524200 39.303699 # 1 UNK
2025 1 1 0.000000 11.587500 42.779701 25.208599 # 1 UNK
2026 1 1 0.000000 46.342701 23.836800 0.516908 # 1 UNK
2027 1 1 0.000000 12.143400 3.140540 25.886299 # 1 UNK
2028 1 1 0.000000 25.444000 20.704300 44.750801 # 1 UNK
2029 1 1 0.000000 44.068001 21.703400 39.688400 # 1 UNK
2030 1 1 0.000000 3.611900 44.914001 6.632520 # 1 UNK
2031 1 1 0.000000 1.264690 38.291801 18.438200 # 1 UNK
2032 1 1 0.000000 45.969002 17.691099 41.075100 # 1 UNK
2033 1 1 0.000000 6.859260 29.787701 34.833099 # 1 UNK
2034 1 1 0.000000 42.619900 26.225700 28.828600 # 1 UNK
2035 1 1 0.000000 23.349899 11.550900 40.012600 # 1 UNK
2036 1 1 0.000000 36.313499 16.918100 41.412399 # 1 UNK
2037 1 1 0.000000 39.030102 29.203899 1.892630 # 1 UNK
2038 1 1 0.000000 0.447461 23.945700 38.341999 # 1 UNK
2039 1 1 0.000000 46.359901 20.897699 26.023001 # 1 UNK
2040 1 1 0.000000 45.554901 22.090000 28.234600 # 1 UNK
2041 1 1 0.000000 40.686699 43.632000 17.648001 # 1 UNK
2042 1 1 0.000000 34.636101 18.118500 31.698200 # 1 UNK
2043 1 1 0.000000 12.285700 45.913399 13.130700 # 1 UNK
2044 1 1 0.000000 37.827202 37.616901 36.269100 # 1 UNK
2045 1 1 0.000000 0.056475 4.829940 35.291599 # 1 UNK
2046 1 1 0.000000 3.637800 15.269000 38.816299 # 1 UNK
2047 1 1 0.000000 16.685699 35.320099 33.726200 # 1 UNK
2048 1 1 0.000000 33.324799 10.921600 23.077400 # 1 UNK
2049 1 1 0.000000 35.666599 37.771301 34.538101 # 1 UNK
2050 1 1 0.000000 14.653200 25.168900 32.801201 # 1 UNK
2051 1 1 0.000000 15.779100 8.034410 31.498899 # 1 UNK
2052 1 1 0.000000 15.872000 31.149799 7.539070 # 1 UNK
2053 1 1 0.000000 5.357960 20.316900 27.079201 # 1 UNK
2054 1 1 0.000000 36.530102 34.538300 40.109299 # 1 UNK
2055 1 1 0.000000 3.012400 35.534401 30.227600 # 1 UNK
2056 1 1 0.000000 34.802200 30.281900 35.027802 # 1 UNK
2057 1 1 0.000000 30.627501 37.938400 34.991901 # 1 UNK
2058 1 1 0.000000 38.624500 8.063660 43.563099 # 1 UNK
2059 1 1 0.000000 45.203201 40.602001 24.122400 # 1 UNK
2060 1 1 0.000000 36.271500 13.936000 42.743198 # 1 UNK
2061 1 1 0.000000 29.542400 40.025501 33.176201 # 1 UNK
2062 1 1 0.000000 13.871300 29.524000 2.520160 # 1 UNK
2063 1 1 0.000000 5.188600 41.349998 20.295200 # 1 UNK
2064 1 1 0.000000 30.796801 26.303699 0.128251 # 1 UNK
2065 1 1 0.000000 24.163500 11.554400 45.902802 # 1 UNK
2066 1 1 0.000000 6.478470 29.258200 44.455799 # 1 UNK
2067 1 1 0.000000 28.726101 0.616397 35.794399 # 1 UNK
2068 1 1 0.000000 17.655600 41.363800 41.963501 # 1 UNK
2069 1 1 0.000000 33.968102 42.580799 25.550501 # 1 UNK
2070 1 1 0.000000 26.300100 33.623001 13.916200 # 1 UNK
2071 1 1 0.000000 22.528500 16.342400 26.668200 # 1 UNK
2072 1 1 0.000000 0.817685 1.943610 46.619999 # 1 UNK
2073 1 1 0.000000 38.279999 27.211500 31.941700 # 1 UNK
2074 1 1 0.000000 42.416401 13.136600 26.671801 # 1 UNK
2075 1 1 0.000000 39.460602 9.315020 41.112499 # 1 UNK
2076 1 1 0.000000 21.850201 41.721699 36.985699 # 1 UNK
2077 1 1 0.000000 36.574902 40.185101 37.717800 # 1 UNK
2078 1 1 0.000000 9.988820 37.184200 10.497200 # 1 UNK
2079 1 1 0.000000 46.790298 20.632299 44.962002 # 1 UNK
2080 1 1 0.000000 19.823400 3.216840 35.178001 # 1 UNK
2081 1 1 0.000000 43.297798 34.640202 8.546320 # 1 UNK
2082 1 1 0.000000 7.187510 3.087730 31.035101 # 1 UNK
2083 1 1 0.000000 19.305000 17.245300 40.936401 # 1 UNK
2084 1 1 0.000000 32.616901 33.990898 35.216301 # 1 UNK
2085 1 1 0.000000 29.464199 35.188301 39.534000 # 1 UNK
2086 1 1 0.000000 38.380199 19.179501 32.150799 # 1 UNK
2087 1 1 0.000000 1.931700 35.806702 1.584060 # 1 UNK
2088 1 1 0.000000 7.507530 2.838310 39.427799 # 1 UNK
2089 1 1 0.000000 46.508999 10.912300 28.638399 # 1 UNK
2090 1 1 0.000000 3.218790 21.612000 26.028999 # 1 UNK
2091 1 1 0.000000 33.457500 3.560140 35.971401 # 1 UNK
2092 1 1 0.000000 23.083700 15.834500 38.282101 # 1 UNK
2093 1 1 0.000000 0.477680 10.234000 46.104599 # 1 UNK
2094 1 1 0.000000 12.600300 4.038700 42.277901 # 1 UNK
2095 1 1 0.000000 24.216801 19.104401 42.966499 # 1 UNK
2096 1 1 0.000000 1.322640 31.322001 31.895901 # 1 UNK
2097 1 1 0.000000 32.701599 31.387100 18.120100 # 1 UNK
2098 1 1 0.000000 16.673700 4.875580 39.081902 # 1 UNK
2099 1 1 0.000000 18.379400 42.510601 2.337560 # 1 UNK
2100 1 1 0.000000 6.517720 10.062000 41.804199 # 1 UNK
2101 1 1 0.000000 11.385200 33.885101 33.545399 # 1 UNK
2102 1 1 0.000000 25.035900 43.868099 12.943600 # 1 UNK
2103 1 1 0.000000 36.219398 31.139299 27.649300 # 1 UNK
2104 1 1 0.000000 0.088248 20.669100 31.015800 # 1 UNK
2105 1 1 0.000000 44.596100 6.791910 44.109501 # 1 UNK
2106 1 1 0.000000 30.396099 40.339100 40.953499 # 1 UNK
2107 1 1 0.000000 21.597799 20.932699 37.375000 # 1 UNK
2108 1 1 0.000000 27.071600 30.128000 39.693199 # 1 UNK
2109 1 1 0.000000 12.766500 14.316000 29.843100 # 1 UNK
2110 1 1 0.000000 17.770000 30.179899 31.106701 # 1 UNK
2111 1 1 0.000000 23.472900 25.667200 44.950001 # 1 UNK
2112 1 1 0.000000 13.395800 14.490200 25.825899 # 1 UNK
2113 1 1 0.000000 16.180300 25.873800 39.647900 # 1 UNK
2114 1 1 0.000000 12.198300 23.811800 31.936300 # 1 UNK
2115 1 1 0.000000 41.859402 35.481098 36.232498 # 1 UNK
2116 1 1 0.000000 43.726101 16.108000 35.084099 # 1 UNK
2117 1 1 0.000000 34.734001 41.149601 44.252800 # 1 UNK
2118 1 1 0.000000 41.861401 4.148250 39.938801 # 1 UNK
2119 1 1 0.000000 35.334702 7.555630 24.645700 # 1 UNK
2120 1 1 0.000000 16.350000 36.690399 40.563999 # 1 UNK
2121 1 1 0.000000 28.200001 29.086500 32.454300 # 1 UNK
2122 1 1 0.000000 46.463600 37.203300 44.777199 # 1 UNK
2123 1 1 0.000000 7.892870 33.246399 37.185902 # 1 UNK
2124 1 1 0.000000 32.127899 25.993799 31.968700 # 1 UNK
2125 1 1 0.000000 34.710999 30.897900 6.605470 # 1 UNK
2126 1 1 0.000000 6.089550 17.405899 39.515202 # 1 UNK
2127 1 1 0.000000 35.042999 38.799301 39.492401 # 1 UNK
2128 1 1 0.000000 33.520599 24.428101 19.475500 # 1 UNK
2129 1 1 0.000000 34.697601 24.364799 2.340860 # 1 UNK
2130 1 1 0.000000 44.754601 9.478870 25.007601 # 1 UNK
2131 1 1 0.000000 27.605900 6.550680 41.905899 # 1 UNK
2132 1 1 0.000000 29.943600 3.005340 43.155300 # 1 UNK
2133 1 1 0.000000 46.520699 8.018970 35.468601 # 1 UNK
2134 1 1 0.000000 1.822720 8.903080 40.112301 # 1 UNK
2135 1 1 0.000000 36.018398 21.115200 40.313400 # 1 UNK
2136 1 1 0.000000 38.067501 20.816000 38.197201 # 1 UNK
2137 1 1 0.000000 37.984699 41.817200 34.179798 # 1 UNK
2138 1 1 0.000000 15.837400 24.678400 37.241299 # 1 UNK
2139 1 1 0.000000 40.617901 34.229801 8.853000 # 1 UNK
2140 1 1 0.000000 45.464699 18.003201 36.917400 # 1 UNK
2141 1 1 0.000000 21.069901 33.277199 21.910299 # 1 UNK
2142 1 1 0.000000 0.337742 12.455900 0.699696 # 1 UNK
2143 1 1 0.000000 2.974010 16.882999 42.575001 # 1 UNK
2144 1 1 0.000000 46.485600 1.213580 4.726530 # 1 UNK
2145 1 1 0.000000 27.926100 19.235001 39.457100 # 1 UNK
2146 1 1 0.000000 45.832500 47.014000 16.489201 # 1 UNK
2147 1 1 0.000000 26.576401 23.424200 22.670700 # 1 UNK
2148 1 1 0.000000 19.344101 20.123800 42.848499 # 1 UNK
2149 1 1 0.000000 11.702200 9.252660 43.668499 # 1 UNK
2150 1 1 0.000000 3.635760 10.253600 44.585400 # 1 UNK
2151 1 1 0.000000 31.467699 36.089001 29.460800 # 1 UNK
2152 1 1 0.000000 35.047798 2.951560 38.390701 # 1 UNK
2153 1 1 0.000000 11.359000 12.065900 26.007900 # 1 UNK
2154 1 1 0.000000 40.492001 32.563702 40.823200 # 1 UNK
2155 1 1 0.000000 28.541100 31.960699 27.150801 # 1 UNK
2156 1 1 0.000000 25.675800 35.023602 32.557301 # 1 UNK
2157 1 1 0.000000 36.673100 9.387000 42.477402 # 1 UNK
2158 1 1 0.000000 12.962800 37.241299 33.815498 # 1 UNK
2159 1 1 0.000000 8.357320 4.380080 26.596500 # 1 UNK
2160 1 1 0.000000 39.720200 15.772800 27.733299 # 1 UNK
2161 1 1 0.000000 35.713299 9.457750 37.459702 # 1 UNK
2162 1 1 0.000000 13.196800 45.689899 35.568600 # 1 UNK
2163 1 1 0.000000 15.984500 42.466599 37.586601 # 1 UNK
2164 1 1 0.000000 11.204600 31.493200 38.620998 # 1 UNK
2165 1 1 0.000000 16.625200 41.158699 30.756201 # 1 UNK
2166 1 1 0.000000 36.248901 32.394100 32.471901 # 1 UNK
2167 1 1 0.000000 12.753500 29.016300 33.219501 # 1 UNK
2168 1 1 0.000000 25.468100 42.028801 18.507200 # 1 UNK
2169 1 1 0.000000 23.739700 29.803301 41.901402 # 1 UNK
2170 1 1 0.000000 22.744900 32.381001 19.914101 # 1 UNK
2171 1 1 0.000000 32.374599 11.092600 31.348200 # 1 UNK
2172 1 1 0.000000 4.773430 18.114500 36.668999 # 1 UNK
2173 1 1 0.000000 9.062050 40.967602 6.298020 # 1 UNK
2174 1 1 0.000000 35.610500 30.386101 43.340302 # 1 UNK
2175 1 1 0.000000 43.521301 29.483700 35.799900 # 1 UNK
2176 1 1 0.000000 45.072300 37.442402 35.980301 # 1 UNK
2177 1 1 0.000000 31.725700 3.095140 28.913200 # 1 UNK
2178 1 1 0.000000 17.767000 23.389500 35.686501 # 1 UNK
2179 1 1 0.000000 38.233898 14.261100 31.099100 # 1 UNK
2180 1 1 0.000000 1.240060 35.576199 45.920502 # 1 UNK
2181 1 1 0.000000 9.548710 24.439400 24.153099 # 1 UNK
2182 1 1 0.000000 4.492700 40.814701 24.756701 # 1 UNK
2183 1 1 0.000000 3.830580 5.275170 38.875801 # 1 UNK
2184 1 1 0.000000 25.215099 4.485720 39.345200 # 1 UNK
2185 1 1 0.000000 41.029499 2.751160 37.689800 # 1 UNK
2186 1 1 0.000000 2.923570 1.417060 44.921799 # 1 UNK
2187 1 1 0.000000 27.707500 19.865999 0.159116 # 1 UNK
2188 1 1 0.000000 26.829300 9.079170 42.047699 # 1 UNK
2189 1 1 0.000000 39.704300 22.008200 34.711399 # 1 UNK
2190 1 1 0.000000 39.056801 16.636000 32.441898 # 1 UNK
2191 1 1 0.000000 7.814130 7.794280 32.228802 # 1 UNK
2192 1 1 0.000000 40.722198 18.047501 26.556999 # 1 UNK
2193 1 1 0.000000 40.423302 46.973999 3.536730 # 1 UNK
2194 1 1 0.000000 24.404600 41.243099 11.340900 # 1 UNK
2195 1 1 0.000000 22.033800 27.615499 38.920101 # 1 UNK
2196 1 1 0.000000 16.573900 25.355200 26.523100 # 1 UNK
2197 1 1 0.000000 25.162100 20.476601 25.457300 # 1 UNK
2198 1 1 0.000000 2.632810 12.583600 28.471701 # 1 UNK
2199 1 1 0.000000 38.127998 17.815599 44.747200 # 1 UNK
2200 1 1 0.000000 34.393299 16.741199 45.126202 # 1 UNK
2201 1 1 0.000000 36.198799 1.068640 32.592701 # 1 UNK
2202 1 1 0.000000 19.018600 17.689699 26.965000 # 1 UNK
2203 1 1 0.000000 3.497100 34.438702 7.452100 # 1 UNK
2204 1 1 0.000000 1.392910 36.974098 42.778000 # 1 UNK
2205 1 1 0.000000 2.710890 23.622200 36.936298 # 1 UNK
2206 1 1 0.000000 36.181801 37.193901 44.486401 # 1 UNK
2207 1 1 0.000000 43.033699 38.311401 43.732601 # 1 UNK
2208 1 1 0.000000 9.930960 26.449699 42.108398 # 1 UNK
2209 1 1 0.000000 12.371300 40.529301 39.525700 # 1 UNK
2210 1 1 0.000000 15.855500 25.890499 2.360400 # 1 UNK
2211 1 1 0.000000 8.178110 14.962100 35.007500 # 1 UNK
2212 1 1 0.000000 28.317600 18.059401 45.111801 # 1 UNK
2213 1 1 0.000000 1.470460 24.394501 44.169998 # 1 UNK
2214 1 1 0.000000 26.773199 40.076401 23.059700 # 1 UNK
2215 1 1 0.000000 34.304100 19.593300 41.233398 # 1 UNK
2216 1 1 0.000000 1.294820 20.691700 34.800098 # 1 UNK
2217 1 1 0.000000 7.482320 40.842201 24.870199 # 1 UNK
2218 1 1 0.000000 6.320380 8.350850 26.950399 # 1 UNK
2219 1 1 0.000000 36.593800 10.569700 30.518400 # 1 UNK
2220 1 1 0.000000 39.784000 28.523899 38.462700 # 1 UNK
2221 1 1 0.000000 33.634102 35.984299 19.764601 # 1 UNK
2222 1 1 0.000000 1.091200 25.579901 23.721399 # 1 UNK
2223 1 1 0.000000 20.617399 0.537107 39.896999 # 1 UNK
2224 1 1 0.000000 45.916500 2.619810 39.569901 # 1 UNK
2225 1 1 0.000000 44.137299 19.285700 28.473499 # 1 UNK
2226 1 1 0.000000 44.365601 31.706699 40.084202 # 1 UNK
2227 1 1 0.000000 14.315500 39.995300 24.223200 # 1 UNK
2228 1 1 0.000000 22.723000 26.652201 30.254499 # 1 UNK
2229 1 1 0.000000 8.352010 25.462700 15.821200 # 1 UNK
2230 1 1 0.000000 24.944201 30.444201 27.080799 # 1 UNK
2231 1 1 0.000000 16.561899 34.281300 0.770132 # 1 UNK
2232 1 1 0.000000 3.277760 38.747700 10.349200 # 1 UNK
2233 1 1 0.000000 35.489601 10.956100 27.768900 # 1 UNK
2234 1 1 0.000000 39.302399 21.105499 27.996700 # 1 UNK
2235 1 1 0.000000 36.070301 20.033300 30.334801 # 1 UNK
2236 1 1 0.000000 13.591700 12.483500 42.840900 # 1 UNK
2237 1 1 0.000000 16.790501 13.946000 26.544500 # 1 UNK
2238 1 1 0.000000 21.512600 18.639799 28.331400 # 1 UNK
2239 1 1 0.000000 31.083700 19.396999 31.698799 # 1 UNK
2240 1 1 0.000000 27.400999 37.831799 37.066601 # 1 UNK
2241 1 1 0.000000 8.647710 32.677299 43.964100 # 1 UNK
2242 1 1 0.000000 5.891590 21.197300 41.247002 # 1 UNK
2243 1 1 0.000000 32.701599 0.601934 44.626900 # 1 UNK
2244 1 1 0.000000 6.892610 27.588900 41.597000 # 1 UNK
2245 1 1 0.000000 14.465800 38.037601 21.408001 # 1 UNK
2246 1 1 0.000000 33.159199 12.499900 27.646299 # 1 UNK
2247 1 1 0.000000 13.872700 36.224499 0.802169 # 1 UNK
2248 1 1 0.000000 19.844700 21.456100 29.311600 # 1 UNK
2249 1 1 0.000000 11.720200 17.825001 32.524502 # 1 UNK
2250 1 1 0.000000 40.173801 19.612400 41.293301 # 1 UNK
2251 1 1 0.000000 16.360800 30.417101 2.869430 # 1 UNK
2252 1 1 0.000000 7.333160 42.891800 43.662701 # 1 UNK
2253 1 1 0.000000 29.859600 32.696499 24.434099 # 1 UNK
2254 1 1 0.000000 10.179300 20.280899 34.028702 # 1 UNK
2255 1 1 0.000000 0.294354 3.894660 26.258801 # 1 UNK
2256 1 1 0.000000 45.034599 24.880100 38.652401 # 1 UNK
2257 1 1 0.000000 45.631699 43.484299 43.624901 # 1 UNK
2258 1 1 0.000000 5.637540 24.133900 44.135399 # 1 UNK
2259 1 1 0.000000 17.897800 15.029300 47.017700 # 1 UNK
2260 1 1 0.000000 39.982601 10.116800 34.649300 # 1 UNK
2261 1 1 0.000000 38.055801 25.976101 25.825800 # 1 UNK
2262 1 1 0.000000 34.828201 39.450401 28.618500 # 1 UNK
2263 1 1 0.000000 19.080299 41.291302 4.945660 # 1 UNK
2264 1 1 0.000000 29.114300 4.326180 40.214500 # 1 UNK
2265 1 1 0.000000 2.569110 33.645000 3.717160 # 1 UNK
2266 1 1 0.000000 3.727940 34.503899 23.370199 # 1 UNK
2267 1 1 0.000000 35.041000 35.604198 16.629601 # 1 UNK
2268 1 1 0.000000 44.576599 9.862570 45.844200 # 1 UNK
2269 1 1 0.000000 44.336201 18.935301 45.247898 # 1 UNK
2270 1 1 0.000000 16.145100 15.559600 37.470901 # 1 UNK
2271 1 1 0.000000 41.715000 9.161400 42.758301 # 1 UNK
2272 1 1 0.000000 46.345699 26.618299 8.524010 # 1 UNK
2273 1 1 0.000000 29.377701 27.466400 21.215900 # 1 UNK
2274 1 1 0.000000 37.426102 0.320105 43.078899 # 1 UNK
2275 1 1 0.000000 3.425570 25.883499 14.922800 # 1 UNK
2276 1 1 0.000000 8.621760 27.924101 0.093804 # 1 UNK
2277 1 1 0.000000 13.543400 29.289101 43.302799 # 1 UNK
2278 1 1 0.000000 0.990809 21.526100 42.666599 # 1 UNK
2279 1 1 0.000000 27.729601 41.663898 41.270599 # 1 UNK
2280 1 1 0.000000 18.470400 36.890301 28.211500 # 1 UNK
2281 1 1 0.000000 36.981201 28.906300 7.626710 # 1 UNK
2282 1 1 0.000000 45.192001 0.662674 35.111198 # 1 UNK
2283 1 1 0.000000 13.855100 2.359090 32.972698 # 1 UNK
2284 1 1 0.000000 28.025101 40.917702 14.554800 # 1 UNK
2285 1 1 0.000000 0.105765 42.675499 13.255400 # 1 UNK
2286 1 1 0.000000 36.705002 39.944000 5.447360 # 1 UNK
2287 1 1 0.000000 18.896799 32.737701 30.715000 # 1 UNK
2288 1 1 0.000000 11.547400 32.000599 4.345120 # 1 UNK
2289 1 1 0.000000 30.537100 29.906601 30.965401 # 1 UNK
2290 1 1 0.000000 29.142099 25.669001 17.050400 # 1 UNK
2291 1 1 0.000000 16.645500 17.253500 28.448900 # 1 UNK
2292 1 1 0.000000 46.003502 40.098400 9.620960 # 1 UNK
2293 1 1 0.000000 43.241600 38.014000 32.020599 # 1 UNK
2294 1 1 0.000000 23.154499 29.800400 19.177299 # 1 UNK
2295 1 1 0.000000 32.197498 35.264900 41.260101 # 1 UNK
2296 1 1 0.000000 8.028930 38.919800 30.148399 # 1 UNK
2297 1 1 0.000000 6.294330 34.305500 22.400900 # 1 UNK
2298 1 1 0.000000 3.466410 41.737499 0.406826 # 1 UNK
2299 1 1 0.000000 44.730301 42.371101 4.312840 # 1 UNK
2300 1 1 0.000000 42.075600 23.114500 33.450600 # 1 UNK
2301 1 1 0.000000 13.616400 23.974300 1.159210 # 1 UNK
2302 1 1 0.000000 29.552700 25.325300 14.582000 # 1 UNK
2303 1 1 0.000000 45.657398 30.954399 18.037600 # 1 UNK
2304 1 1 0.000000 45.995499 15.174300 25.958500 # 1 UNK
2305 1 1 0.000000 46.091000 22.280199 33.663700 # 1 UNK
2306 1 1 0.000000 9.451020 8.129100 35.464500 # 1 UNK
2307 1 1 0.000000 33.050201 27.843300 29.994200 # 1 UNK
2308 1 1 0.000000 45.808102 44.024101 17.746000 # 1 UNK
2309 1 1 0.000000 31.376400 45.584999 45.852600 # 1 UNK
2310 1 1 0.000000 3.606860 18.790100 29.094500 # 1 UNK
2311 1 1 0.000000 44.805401 43.818699 24.571400 # 1 UNK
2312 1 1 0.000000 31.427401 21.527100 39.348701 # 1 UNK
2313 1 1 0.000000 45.466301 30.432400 46.538200 # 1 UNK
2314 1 1 0.000000 30.102400 16.898100 35.214901 # 1 UNK
2315 1 1 0.000000 41.045700 20.354401 37.982498 # 1 UNK
2316 1 1 0.000000 18.860399 13.221700 39.095501 # 1 UNK
2317 1 1 0.000000 21.768700 46.391399 27.719700 # 1 UNK
2318 1 1 0.000000 39.543900 40.924099 1.676490 # 1 UNK
2319 1 1 0.000000 13.571100 29.002899 30.674700 # 1 UNK
2320 1 1 0.000000 32.723499 19.111900 44.466599 # 1 UNK
2321 1 1 0.000000 29.246300 39.098701 12.617200 # 1 UNK
2322 1 1 0.000000 0.316114 30.006100 13.964900 # 1 UNK
2323 1 1 0.000000 35.219898 41.345299 35.992401 # 1 UNK
2324 1 1 0.000000 6.380480 15.331100 31.577000 # 1 UNK
2325 1 1 0.000000 23.110399 4.819240 28.768000 # 1 UNK
2326 1 1 0.000000 8.347090 35.652100 30.349400 # 1 UNK
2327 1 1 0.000000 44.724499 25.249300 35.978001 # 1 UNK
2328 1 1 0.000000 39.054798 44.568199 23.409500 # 1 UNK
2329 1 1 0.000000 3.849990 36.138302 38.223099 # 1 UNK
2330 1 1 0.000000 42.966202 29.421801 40.028099 # 1 UNK
2331 1 1 0.000000 43.569302 33.860298 31.150900 # 1 UNK
2332 1 1 0.000000 30.615299 19.481899 34.782501 # 1 UNK
2333 1 1 0.000000 14.742100 12.426400 29.165899 # 1 UNK
2334 1 1 0.000000 36.751202 42.263000 31.228201 # 1 UNK
2335 1 1 0.000000 45.618599 42.107201 26.628300 # 1 UNK
2336 1 1 0.000000 1.627870 36.165699 23.586000 # 1 UNK
2337 1 1 0.000000 38.075298 2.864230 41.202301 # 1 UNK
2338 1 1 0.000000 23.236000 23.323601 32.451199 # 1 UNK
2339 1 1 0.000000 32.885300 29.917101 44.517700 # 1 UNK
2340 1 1 0.000000 1.546100 12.088700 37.252800 # 1 UNK
2341 1 1 0.000000 39.746101 40.112999 42.577599 # 1 UNK
2342 1 1 0.000000 39.130901 37.819698 40.021801 # 1 UNK
2343 1 1 0.000000 20.596001 27.347099 4.374240 # 1 UNK
2344 1 1 0.000000 21.486799 41.983799 5.594600 # 1 UNK
2345 1 1 0.000000 39.893002 33.939098 24.091499 # 1 UNK
2346 1 1 0.000000 33.273602 46.506199 21.876801 # 1 UNK
2347 1 1 0.000000 9.395180 40.835300 39.093201 # 1 UNK
2348 1 1 0.000000 12.300000 43.026001 34.837601 # 1 UNK
2349 1 1 0.000000 28.747200 27.626900 36.139999 # 1 UNK
2350 1 1 0.000000 41.252800 5.969750 43.165798 # 1 UNK
2351 1 1 0.000000 24.647699 42.261902 40.238800 # 1 UNK
2352 1 1 0.000000 46.353901 46.095501 33.271801 # 1 UNK
2353 1 1 0.000000 28.911900 32.617298 39.209599 # 1 UNK
2354 1 1 0.000000 19.620600 4.653410 31.921101 # 1 UNK
2355 1 1 0.000000 5.459440 46.158100 2.829210 # 1 UNK
2356 1 1 0.000000 33.582298 24.562799 7.678460 # 1 UNK
2357 1 1 0.000000 36.413601 6.031070 26.754400 # 1 UNK
2358 1 1 0.000000 34.509899 46.636200 40.789101 # 1 UNK
2359 1 1 0.000000 46.024200 10.524200 32.641899 # 1 UNK
2360 1 1 0.000000 27.641500 4.702090 24.442900 # 1 UNK
2361 1 1 0.000000 2.193230 4.661070 31.547199 # 1 UNK
2362 1 1 0.000000 19.586901 27.039700 25.738100 # 1 UNK
2363 1 1 0.000000 19.119600 46.571201 45.277199 # 1 UNK
2364 1 1 0.000000 5.040050 44.262600 27.539600 # 1 UNK
2365 1 1 0.000000 2.175640 28.220100 22.774200 # 1 UNK
2366 1 1 0.000000 22.182400 43.542198 38.881001 # 1 UNK
2367 1 1 0.000000 27.924700 17.219500 27.961201 # 1 UNK
2368 1 1 0.000000 2.782520 25.548500 29.820200 # 1 UNK
2369 1 1 0.000000 22.404100 12.290600 27.898800 # 1 UNK
2370 1 1 0.000000 27.148399 3.156250 43.079201 # 1 UNK
2371 1 1 0.000000 4.664890 31.849800 0.910288 # 1 UNK
2372 1 1 0.000000 11.032600 42.889702 37.753502 # 1 UNK
2373 1 1 0.000000 30.287901 7.002260 40.904900 # 1 UNK
2374 1 1 0.000000 3.466510 19.347500 31.982100 # 1 UNK
2375 1 1 0.000000 22.658100 37.216900 4.224590 # 1 UNK
2376 1 1 0.000000 32.404598 42.230801 3.132260 # 1 UNK
2377 1 1 0.000000 26.622200 25.964899 36.308899 # 1 UNK
2378 1 1 0.000000 26.765600 41.743801 31.854900 # 1 UNK
2379 1 1 0.000000 14.570300 46.789902 32.149799 # 1 UNK
2380 1 1 0.000000 39.852402 25.162500 38.278702 # 1 UNK
2381 1 1 0.000000 15.449500 17.642401 41.609901 # 1 UNK
2382 1 1 0.000000 27.296400 38.612701 20.896900 # 1 UNK
2383 1 1 0.000000 34.293999 41.056702 30.762199 # 1 UNK
2384 1 1 0.000000 10.774300 39.337898 28.888800 # 1 UNK
2385 1 1 0.000000 5.555090 31.900299 36.269001 # 1 UNK
2386 1 1 0.000000 36.513401 1.630660 36.627499 # 1 UNK
2387 1 1 0.000000 31.197500 44.748299 42.298302 # 1 UNK
2388 1 1 0.000000 16.960100 41.944599 33.971802 # 1 UNK
2389 1 1 0.000000 10.192800 42.395302 27.568600 # 1 UNK
2390 1 1 0.000000 26.584600 24.126301 2.117970 # 1 UNK
2391 1 1 0.000000 42.419701 31.228399 1.345760 # 1 UNK
2392 1 1 0.000000 30.220200 0.399596 43.620499 # 1 UNK
2393 1 1 0.000000 6.156100 45.399101 8.179200 # 1 UNK
2394 1 1 0.000000 26.724600 0.427125 22.298401 # 1 UNK
2395 1 1 0.000000 43.104000 38.320202 3.326150 # 1 UNK
2396 1 1 0.000000 8.792980 35.734798 38.619801 # 1 UNK
2397 1 1 0.000000 12.659100 46.144798 46.605301 # 1 UNK
2398 1 1 0.000000 39.875301 41.535301 28.762899 # 1 UNK
2399 1 1 0.000000 44.205700 38.124500 9.363180 # 1 UNK
2400 1 1 0.000000 17.557501 41.109600 13.503000 # 1 UNK
2401 1 1 0.000000 31.146000 8.369350 2.524140 # 1 UNK
2402 1 1 0.000000 11.566200 39.020199 42.261799 # 1 UNK
2403 1 1 0.000000 46.266899 34.706902 28.788900 # 1 UNK
2404 1 1 0.000000 28.357300 26.885000 4.204230 # 1 UNK
2405 1 1 0.000000 14.256100 37.656101 42.600300 # 1 UNK
2406 1 1 0.000000 15.224600 23.286600 10.761200 # 1 UNK
2407 1 1 0.000000 21.281099 18.004900 36.967899 # 1 UNK
2408 1 1 0.000000 18.127600 38.156601 15.996500 # 1 UNK
2409 1 1 0.000000 31.687201 41.698101 0.384577 # 1 UNK
2410 1 1 0.000000 10.261700 24.195499 27.878500 # 1 UNK
2411 1 1 0.000000 27.641701 15.569200 38.680901 # 1 UNK
2412 1 1 0.000000 33.525002 13.344100 23.891899 # 1 UNK
2413 1 1 0.000000 31.546801 26.410801 39.056801 # 1 UNK
2414 1 1 0.000000 32.836800 8.681520 45.430401 # 1 UNK
2415 1 1 0.000000 41.832199 0.605623 40.322102 # 1 UNK
2416 1 1 0.000000 44.348900 17.426399 32.578300 # 1 UNK
2417 1 1 0.000000 43.847698 13.562700 35.965698 # 1 UNK
2418 1 1 0.000000 30.108999 28.142700 2.173000 # 1 UNK
2419 1 1 0.000000 9.256780 26.925900 11.359500 # 1 UNK
2420 1 1 0.000000 28.372200 34.303600 43.331600 # 1 UNK
2421 1 1 0.000000 10.346200 21.150801 45.240700 # 1 UNK
2422 1 1 0.000000 10.451900 35.862301 2.972570 # 1 UNK
2423 1 1 0.000000 28.692101 10.513300 45.208000 # 1 UNK
2424 1 1 0.000000 25.301100 45.584999 36.613800 # 1 UNK
2425 1 1 0.000000 9.652950 43.512299 31.313400 # 1 UNK
2426 1 1 0.000000 25.513901 35.092999 29.609301 # 1 UNK
2427 1 1 0.000000 10.916700 37.179600 44.913502 # 1 UNK
2428 1 1 0.000000 4.367730 6.549540 34.308201 # 1 UNK
2429 1 1 0.000000 44.328300 27.054800 40.213402 # 1 UNK
2430 1 1 0.000000 16.264999 37.687698 35.155998 # 1 UNK
2431 1 1 0.000000 37.832401 12.509900 27.616600 # 1 UNK
2432 1 1 0.000000 28.836800 35.582001 30.376801 # 1 UNK
2433 1 1 0.000000 8.923180 6.340870 40.352501 # 1 UNK
2434 1 1 0.000000 25.934900 5.619560 43.718601 # 1 UNK
2435 1 1 0.000000 24.564301 37.556000 12.643700 # 1 UNK
2436 1 1 0.000000 29.631001 3.497380 34.431000 # 1 UNK
2437 1 1 0.000000 17.417999 33.645401 23.389900 # 1 UNK
2438 1 1 0.000000 19.644100 44.775700 43.043701 # 1 UNK
2439 1 1 0.000000 21.612900 27.328100 46.446098 # 1 UNK
2440 1 1 0.000000 36.887299 28.404900 41.532101 # 1 UNK
2441 1 1 0.000000 40.445099 7.068330 34.115601 # 1 UNK
2442 1 1 0.000000 13.938200 10.065200 45.547901 # 1 UNK
2443 1 1 0.000000 5.609480 37.674000 3.843330 # 1 UNK
2444 1 1 0.000000 31.860800 23.739300 44.447701 # 1 UNK
2445 1 1 0.000000 18.592199 33.316601 46.193501 # 1 UNK
2446 1 1 0.000000 10.944000 34.621399 30.851801 # 1 UNK
2447 1 1 0.000000 12.236600 18.932800 29.292999 # 1 UNK
2448 1 1 0.000000 26.147400 36.577599 21.958300 # 1 UNK
2449 1 1 0.000000 31.066900 29.656099 38.431099 # 1 UNK
2450 1 1 0.000000 15.808700 36.533901 7.837340 # 1 UNK
2451 1 1 0.000000 37.409698 22.857201 36.268398 # 1 UNK
2452 1 1 0.000000 18.698000 24.798000 37.737598 # 1 UNK
2453 1 1 0.000000 43.579601 7.773550 39.443501 # 1 UNK
2454 1 1 0.000000 8.335810 14.774500 39.514999 # 1 UNK
2455 1 1 0.000000 4.085070 6.539430 30.828199 # 1 UNK
2456 1 1 0.000000 23.062901 30.147600 0.447929 # 1 UNK
2457 1 1 0.000000 39.498299 28.610100 25.221100 # 1 UNK
2458 1 1 0.000000 33.920300 29.795099 27.908300 # 1 UNK
2459 1 1 0.000000 44.231400 8.597910 32.416401 # 1 UNK
2460 1 1 0.000000 31.207800 29.304501 35.736401 # 1 UNK
2461 1 1 0.000000 40.929901 7.328220 38.317299 # 1 UNK
2462 1 1 0.000000 30.928900 39.220200 38.135899 # 1 UNK
2463 1 1 0.000000 12.822500 32.696602 12.674100 # 1 UNK
2464 1 1 0.000000 14.160100 3.997390 44.984200 # 1 UNK
2465 1 1 0.000000 32.720600 31.167601 36.887001 # 1 UNK
2466 1 1 0.000000 4.758560 4.316020 32.225700 # 1 UNK
2467 1 1 0.000000 34.315800 25.227600 12.723400 # 1 UNK
2468 1 1 0.000000 10.149000 18.332701 26.709999 # 1 UNK
2469 1 1 0.000000 17.807699 6.680250 46.145199 # 1 UNK
2470 1 1 0.000000 9.832480 24.600500 30.818800 # 1 UNK
2471 1 1 0.000000 4.779660 29.592100 42.145901 # 1 UNK
2472 1 1 0.000000 0.814887 32.409000 2.260660 # 1 UNK
2473 1 1 0.000000 39.767601 12.044500 30.119400 # 1 UNK
2474 1 1 0.000000 5.492210 25.104200 13.389600 # 1 UNK
2475 1 1 0.000000 0.945623 1.117790 28.292299 # 1 UNK
2476 1 1 0.000000 8.673740 31.632601 31.571699 # 1 UNK
2477 1 1 0.000000 0.248405 44.500198 39.771801 # 1 UNK
2478 1 1 0.000000 34.946301 21.189699 44.618599 # 1 UNK
2479 1 1 0.000000 46.983200 15.472400 39.397701 # 1 UNK
2480 1 1 0.000000 23.868000 22.962099 45.175800 # 1 UNK
2481 1 1 0.000000 8.659060 27.993500 36.605099 # 1 UNK
2482 1 1 0.000000 14.685700 44.147202 11.486200 # 1 UNK
2483 1 1 0.000000 11.148300 42.699699 40.525600 # 1 UNK
2484 1 1 0.000000 40.834301 45.792301 29.555700 # 1 UNK
2485 1 1 0.000000 9.900940 25.970400 35.344601 # 1 UNK
2486 1 1 0.000000 46.900398 2.621800 33.660702 # 1 UNK
2487 1 1 0.000000 2.650810 25.774401 46.475300 # 1 UNK
2488 1 1 0.000000 30.481501 44.416100 33.096901 # 1 UNK
2489 1 1 0.000000 13.690500 3.171160 38.079800 # 1 UNK
2490 1 1 0.000000 8.329200 6.516110 29.651600 # 1 UNK
2491 1 1 0.000000 32.011101 29.642000 21.741899 # 1 UNK
2492 1 1 0.000000 4.996670 27.877199 22.550200 # 1 UNK
2493 1 1 0.000000 43.047501 5.673080 37.678200 # 1 UNK
2494 1 1 0.000000 12.904900 10.450800 38.083000 # 1 UNK
2495 1 1 0.000000 34.594898 20.968901 25.165400 # 1 UNK
2496 1 1 0.000000 36.450500 41.851799 14.130300 # 1 UNK
2497 1 1 0.000000 9.120560 9.305960 43.015499 # 1 UNK
2498 1 1 0.000000 28.327101 -0.020293 33.269199 # 1 UNK
2499 1 1 0.000000 45.600201 14.652100 45.471298 # 1 UNK
2500 1 1 0.000000 34.428001 22.313601 33.702702 # 1 UNK
2501 1 1 0.000000 7.805110 20.269199 39.782200 # 1 UNK
2502 1 1 0.000000 14.803900 20.730200 29.633699 # 1 UNK
2503 1 1 0.000000 44.249599 40.162300 41.986900 # 1 UNK
2504 1 1 0.000000 42.465900 20.741699 43.273499 # 1 UNK
2505 1 1 0.000000 4.149870 29.416401 20.426600 # 1 UNK
2506 1 1 0.000000 6.418950 14.882000 37.562199 # 1 UNK
2507 1 1 0.000000 34.129799 24.778500 30.618000 # 1 UNK
2508 1 1 0.000000 38.336700 5.671360 35.428902 # 1 UNK
2509 1 1 0.000000 40.462200 21.176600 30.829700 # 1 UNK
2510 1 1 0.000000 25.372601 30.717300 17.721901 # 1 UNK
2511 1 1 0.000000 21.076401 43.928902 21.115700 # 1 UNK
2512 1 1 0.000000 39.528599 26.527300 18.264000 # 1 UNK
2513 1 1 0.000000 46.610100 1.298290 25.714199 # 1 UNK
2514 1 1 0.000000 35.408798 26.700500 0.919106 # 1 UNK
2515 1 1 0.000000 42.143700 29.060900 14.842800 # 1 UNK
2516 1 1 0.000000 23.294800 33.391399 34.631199 # 1 UNK
2517 1 1 0.000000 22.009899 35.518799 37.824100 # 1 UNK
2518 1 1 0.000000 25.331800 23.994400 37.602001 # 1 UNK
2519 1 1 0.000000 11.159000 45.667999 5.844190 # 1 UNK
2520 1 1 0.000000 29.153000 8.348300 43.285599 # 1 UNK
2521 1 1 0.000000 13.088000 38.378700 15.865600 # 1 UNK
2522 1 1 0.000000 15.927600 26.572201 13.702300 # 1 UNK
2523 1 1 0.000000 8.994030 0.441828 24.106100 # 1 UNK
2524 1 1 0.000000 32.820000 44.730400 10.702000 # 1 UNK
2525 1 1 0.000000 36.382401 30.920099 40.497299 # 1 UNK
2526 1 1 0.000000 42.362701 43.597698 31.966999 # 1 UNK
2527 1 1 0.000000 9.696360 4.078030 30.896601 # 1 UNK
2528 1 1 0.000000 25.868401 40.501400 7.373980 # 1 UNK
2529 1 1 0.000000 18.227400 15.011600 28.452900 # 1 UNK
2530 1 1 0.000000 33.220600 22.119900 42.780399 # 1 UNK
2531 1 1 0.000000 45.230301 27.262501 46.160198 # 1 UNK
2532 1 1 0.000000 39.292599 8.989600 32.265999 # 1 UNK
2533 1 1 0.000000 1.435160 38.349098 8.251810 # 1 UNK
2534 1 1 0.000000 3.248560 30.276501 35.612202 # 1 UNK
2535 1 1 0.000000 27.794800 41.211601 36.955898 # 1 UNK
2536 1 1 0.000000 42.506802 8.730400 34.721500 # 1 UNK
2537 1 1 0.000000 46.778301 25.558001 29.250799 # 1 UNK
2538 1 1 0.000000 32.974800 35.992802 33.359100 # 1 UNK
2539 1 1 0.000000 35.182701 26.391300 25.941799 # 1 UNK
2540 1 1 0.000000 38.729599 32.745499 42.814400 # 1 UNK
2541 1 1 0.000000 20.392300 41.180099 17.918800 # 1 UNK
2542 1 1 0.000000 24.361700 46.175201 21.233500 # 1 UNK
2543 1 1 0.000000 7.588900 43.069302 29.502501 # 1 UNK
2544 1 1 0.000000 5.875560 14.276700 46.751202 # 1 UNK
2545 1 1 0.000000 36.485600 16.958200 37.653301 # 1 UNK
2546 1 1 0.000000 46.576500 10.903500 43.314499 # 1 UNK
2547 1 1 0.000000 5.639420 18.500500 33.255798 # 1 UNK
2548 1 1 0.000000 36.812199 46.181702 27.127600 # 1 UNK
2549 1 1 0.000000 10.616800 37.148998 36.469601 # 1 UNK
2550 1 1 0.000000 16.669800 27.467400 25.085100 # 1 UNK
2551 1 1 0.000000 6.308380 40.345200 17.959900 # 1 UNK
2552 1 1 0.000000 4.619340 45.723499 24.516600 # 1 UNK
2553 1 1 0.000000 1.458350 41.004700 28.155300 # 1 UNK
2554 1 1 0.000000 33.440102 35.852901 24.479200 # 1 UNK
2555 1 1 0.000000 39.493198 26.173300 35.127201 # 1 UNK
2556 1 1 0.000000 2.347990 26.264700 37.198399 # 1 UNK
2557 1 1 0.000000 15.485700 11.756800 34.834801 # 1 UNK
2558 1 1 0.000000 1.456010 16.746799 45.537399 # 1 UNK
2559 1 1 0.000000 43.321098 45.870098 30.946301 # 1 UNK
2560 1 1 0.000000 11.246900 33.888199 21.966400 # 1 UNK
2561 1 1 0.000000 20.776100 32.062401 3.447870 # 1 UNK
2562 1 1 0.000000 36.685200 44.265598 37.571701 # 1 UNK
2563 1 1 0.000000 32.974998 22.964001 24.686199 # 1 UNK
2564 1 1 0.000000 32.706001 25.761600 24.796000 # 1 UNK
2565 1 1 0.000000 35.909801 46.145699 35.877701 # 1 UNK
2566 1 1 0.000000 -0.024294 8.318610 44.086201 # 1 UNK
2567 1 1 0.000000 44.448101 34.788799 36.669102 # 1 UNK
2568 1 1 0.000000 2.338050 25.692200 10.642100 # 1 UNK
2569 1 1 0.000000 8.194540 22.946199 40.574299 # 1 UNK
2570 1 1 0.000000 45.376900 27.038500 24.102800 # 1 UNK
2571 1 1 0.000000 22.822399 24.863800 36.828201 # 1 UNK
2572 1 1 0.000000 6.911510 27.485201 24.490499 # 1 UNK
2573 1 1 0.000000 23.894800 7.113860 35.814899 # 1 UNK
2574 1 1 0.000000 29.933599 18.292801 0.214575 # 1 UNK
2575 1 1 0.000000 0.595212 31.246000 16.288601 # 1 UNK
2576 1 1 0.000000 13.030700 19.001600 39.486698 # 1 UNK
2577 1 1 0.000000 31.204201 35.963902 2.286890 # 1 UNK
2578 1 1 0.000000 11.336700 35.732300 40.087502 # 1 UNK
2579 1 1 0.000000 18.247801 14.837600 43.938000 # 1 UNK
2580 1 1 0.000000 32.254200 39.585201 4.492920 # 1 UNK
2581 1 1 0.000000 41.066002 18.044600 36.680801 # 1 UNK
2582 1 1 0.000000 8.508220 38.501999 25.946301 # 1 UNK
2583 1 1 0.000000 36.291302 39.548401 24.144699 # 1 UNK
2584 1 1 0.000000 25.438999 28.930201 31.072001 # 1 UNK
2585 1 1 0.000000 33.676701 13.486700 31.087900 # 1 UNK
2586 1 1 0.000000 8.708160 0.270024 27.523899 # 1 UNK
2587 1 1 0.000000 2.373690 30.004700 38.906799 # 1 UNK
2588 1 1 0.000000 21.749001 31.385300 15.557900 # 1 UNK
2589 1 1 0.000000 20.830700 27.369101 22.564899 # 1 UNK
2590 1 1 0.000000 26.797199 37.858299 7.759700 # 1 UNK
2591 1 1 0.000000 8.408570 22.740601 0.058499 # 1 UNK
2592 1 1 0.000000 11.056300 32.836201 42.066200 # 1 UNK
2593 1 1 0.000000 33.654999 27.705299 36.189098 # 1 UNK
2594 1 1 0.000000 17.515100 22.972900 45.366100 # 1 UNK
2595 1 1 0.000000 39.647999 5.563920 28.393400 # 1 UNK
2596 1 1 0.000000 32.000401 40.173698 35.596699 # 1 UNK
2597 1 1 0.000000 26.702801 29.616899 25.186199 # 1 UNK
2598 1 1 0.000000 6.536320 0.365096 25.836500 # 1 UNK
2599 1 1 0.000000 18.894501 19.034700 29.669201 # 1 UNK
2600 1 1 0.000000 5.706760 31.492300 33.104698 # 1 UNK
2601 1 1 0.000000 35.451199 42.856400 46.449200 # 1 UNK
2602 1 1 0.000000 25.432100 25.726999 27.159599 # 1 UNK
2603 1 1 0.000000 27.654499 15.933400 35.435001 # 1 UNK
2604 1 1 0.000000 44.346600 42.894501 34.124199 # 1 UNK
2605 1 1 0.000000 20.447500 29.315001 37.438900 # 1 UNK
2606 1 1 0.000000 42.214001 35.140900 23.313101 # 1 UNK
2607 1 1 0.000000 19.263500 10.058100 24.549200 # 1 UNK
2608 1 1 0.000000 34.724899 45.091702 15.886800 # 1 UNK
2609 1 1 0.000000 31.086901 26.514700 5.180290 # 1 UNK
2610 1 1 0.000000 11.593300 8.548840 39.599400 # 1 UNK
2611 1 1 0.000000 20.844601 10.444000 31.696199 # 1 UNK
2612 1 1 0.000000 29.996500 30.256599 6.525620 # 1 UNK
2613 1 1 0.000000 18.494499 6.861400 43.538601 # 1 UNK
2614 1 1 0.000000 21.104099 23.396999 38.587799 # 1 UNK
2615 1 1 0.000000 37.587898 23.314400 28.576799 # 1 UNK
2616 1 1 0.000000 46.914101 6.820250 37.900299 # 1 UNK
2617 1 1 0.000000 4.000750 44.063301 34.723400 # 1 UNK
2618 1 1 0.000000 37.946800 28.689301 15.755600 # 1 UNK
2619 1 1 0.000000 21.134899 32.811001 17.742399 # 1 UNK
2620 1 1 0.000000 2.012750 14.734100 32.440102 # 1 UNK
2621 1 1 0.000000 29.873199 15.535100 0.529277 # 1 UNK
2622 1 1 0.000000 37.712002 44.052200 45.587002 # 1 UNK
2623 1 1 0.000000 24.263700 15.611800 31.307699 # 1 UNK
2624 1 1 0.000000 2.887630 38.505600 26.136101 # 1 UNK
2625 1 1 0.000000 23.733000 36.898899 1.722240 # 1 UNK
2626 1 1 0.000000 30.980700 1.552310 32.808899 # 1 UNK
2627 1 1 0.000000 42.581799 41.440102 29.194700 # 1 UNK
2628 1 1 0.000000 40.928398 8.007330 45.264400 # 1 UNK
2629 1 1 0.000000 38.789600 37.279701 12.418200 # 1 UNK
2630 1 1 0.000000 31.641001 34.805500 21.535200 # 1 UNK
2631 1 1 0.000000 5.568680 42.460400 31.445400 # 1 UNK
2632 1 1 0.000000 40.569099 41.716599 25.143000 # 1 UNK
2633 1 1 0.000000 29.312401 35.437099 36.673199 # 1 UNK
2634 1 1 0.000000 11.789000 2.304440 30.253300 # 1 UNK
2635 1 1 0.000000 22.199800 46.695599 33.559898 # 1 UNK
2636 1 1 0.000000 4.813300 37.135502 12.381500 # 1 UNK
2637 1 1 0.000000 32.336399 31.887699 11.728300 # 1 UNK
2638 1 1 0.000000 9.612030 10.777300 29.999100 # 1 UNK
2639 1 1 0.000000 37.818298 16.710300 25.810101 # 1 UNK
2640 1 1 0.000000 21.044800 33.818199 33.130299 # 1 UNK
2641 1 1 0.000000 25.571501 33.353401 41.961399 # 1 UNK
2642 1 1 0.000000 3.562000 37.946899 44.294300 # 1 UNK
2643 1 1 0.000000 37.517502 34.340500 28.545799 # 1 UNK
2644 1 1 0.000000 9.501060 44.909401 28.003300 # 1 UNK
2645 1 1 0.000000 29.076500 20.644800 29.913099 # 1 UNK
2646 1 1 0.000000 30.641001 39.063599 30.481100 # 1 UNK
2647 1 1 0.000000 29.935801 25.886299 26.156900 # 1 UNK
2648 1 1 0.000000 20.108400 36.405602 25.902901 # 1 UNK
2649 1 1 0.000000 3.359760 28.740601 10.736000 # 1 UNK
2650 1 1 0.000000 26.329201 20.247000 32.728001 # 1 UNK
2651 1 1 0.000000 44.029202 15.872900 37.792000 # 1 UNK
2652 1 1 0.000000 34.973701 32.786301 35.910301 # 1 UNK
2653 1 1 0.000000 23.438601 29.697500 14.256700 # 1 UNK
2654 1 1 0.000000 27.060801 40.926498 29.235800 # 1 UNK
2655 1 1 0.000000 23.448601 35.939201 35.450500 # 1 UNK
2656 1 1 0.000000 31.446699 28.565399 26.205000 # 1 UNK
2657 1 1 0.000000 7.206920 21.847500 33.096199 # 1 UNK
2658 1 1 0.000000 4.371520 8.961410 35.513500 # 1 UNK
2659 1 1 0.000000 40.573799 40.384899 36.630199 # 1 UNK
2660 1 1 0.000000 39.538200 4.876720 39.584000 # 1 UNK
2661 1 1 0.000000 41.307098 23.012699 44.294201 # 1 UNK
2662 1 1 0.000000 39.756001 4.514700 33.086800 # 1 UNK
2663 1 1 0.000000 23.546000 6.567100 38.321899 # 1 UNK
2664 1 1 0.000000 41.796799 21.703100 40.971600 # 1 UNK
2665 1 1 0.000000 31.792801 36.042999 26.618000 # 1 UNK
2666 1 1 0.000000 35.810799 32.797798 44.678902 # 1 UNK
2667 1 1 0.000000 33.560200 8.697990 26.937201 # 1 UNK
2668 1 1 0.000000 9.522220 45.360600 37.304401 # 1 UNK
2669 1 1 0.000000 28.292500 10.283800 38.922699 # 1 UNK
2670 1 1 0.000000 44.827999 24.528200 21.110600 # 1 UNK
2671 1 1 0.000000 26.419001 5.071570 26.774200 # 1 UNK
2672 1 1 0.000000 23.996599 29.753099 7.272410 # 1 UNK
2673 1 1 0.000000 10.445500 36.237900 26.247601 # 1 UNK
2674 1 1 0.000000 21.168501 22.001499 46.288898 # 1 UNK
2675 1 1 0.000000 17.910999 19.115601 44.994801 # 1 UNK
2676 1 1 0.000000 22.658300 2.869810 45.811001 # 1 UNK
2677 1 1 0.000000 34.424500 14.338100 34.990799 # 1 UNK
2678 1 1 0.000000 44.208302 39.481998 37.369598 # 1 UNK
2679 1 1 0.000000 46.516399 22.915001 40.799500 # 1 UNK
2680 1 1 0.000000 15.748600 45.458199 14.918400 # 1 UNK
2681 1 1 0.000000 11.386300 30.130800 35.813702 # 1 UNK
2682 1 1 0.000000 34.910400 23.708401 28.289900 # 1 UNK
2683 1 1 0.000000 28.231001 26.486500 45.508099 # 1 UNK
2684 1 1 0.000000 34.176601 1.871240 42.451302 # 1 UNK
2685 1 1 0.000000 20.847500 3.200320 29.830400 # 1 UNK
2686 1 1 0.000000 23.262400 27.535299 4.148680 # 1 UNK
2687 1 1 0.000000 25.501400 11.227600 26.501600 # 1 UNK
2688 1 1 0.000000 28.823000 28.120701 39.032200 # 1 UNK
2689 1 1 0.000000 38.110001 44.484299 35.036701 # 1 UNK
2690 1 1 0.000000 14.193300 4.889200 33.544300 # 1 UNK
2691 1 1 0.000000 19.093100 38.308701 37.529499 # 1 UNK
2692 1 1 0.000000 41.607201 35.708401 43.236900 # 1 UNK
2693 1 1 0.000000 29.089899 39.654701 16.991899 # 1 UNK
2694 1 1 0.000000 24.650200 28.002199 1.643170 # 1 UNK
2695 1 1 0.000000 45.482201 36.720299 38.641499 # 1 UNK
2696 1 1 0.000000 11.448900 26.256800 24.081600 # 1 UNK
2697 1 1 0.000000 24.191099 6.109360 31.348499 # 1 UNK
2698 1 1 0.000000 7.439130 33.193699 2.517640 # 1 UNK
2699 1 1 0.000000 30.532600 32.072601 21.874701 # 1 UNK
2700 1 1 0.000000 43.040298 9.018660 28.621799 # 1 UNK
2701 1 1 0.000000 32.490002 27.305300 13.087800 # 1 UNK
2702 1 1 0.000000 41.050999 14.165500 41.547501 # 1 UNK
2703 1 1 0.000000 35.302399 26.959299 39.305500 # 1 UNK
2704 1 1 0.000000 31.669100 41.435501 26.778700 # 1 UNK
2705 1 1 0.000000 25.305000 31.480700 5.758560 # 1 UNK
2706 1 1 0.000000 43.062901 29.885599 17.166000 # 1 UNK
2707 1 1 0.000000 15.201100 13.699200 33.098202 # 1 UNK
2708 1 1 0.000000 35.471001 5.557020 44.035999 # 1 UNK
2709 1 1 0.000000 38.289902 9.930450 36.650398 # 1 UNK
2710 1 1 0.000000 10.636300 45.167500 34.744999 # 1 UNK
2711 1 1 0.000000 26.000999 35.883598 18.362000 # 1 UNK
2712 1 1 0.000000 37.675201 30.772100 4.071440 # 1 UNK
2713 1 1 0.000000 42.706200 14.438900 43.583302 # 1 UNK
2714 1 1 0.000000 7.557150 0.383805 35.021900 # 1 UNK
2715 1 1 0.000000 6.375880 37.524300 1.087890 # 1 UNK
2716 1 1 0.000000 31.228901 10.995800 35.717499 # 1 UNK
2717 1 1 0.000000 9.628260 24.853399 7.479130 # 1 UNK
2718 1 1 0.000000 40.210701 11.593700 37.162399 # 1 UNK
2719 1 1 0.000000 41.711498 18.385099 31.672600 # 1 UNK
2720 1 1 0.000000 27.363600 7.571600 34.163101 # 1 UNK
2721 1 1 0.000000 21.149599 19.615101 44.889000 # 1 UNK
2722 1 1 0.000000 17.873501 4.556780 41.837601 # 1 UNK
2723 1 1 0.000000 4.563130 3.855160 45.423401 # 1 UNK
2724 1 1 0.000000 34.116100 7.142590 37.960201 # 1 UNK
2725 1 1 0.000000 25.317600 4.079740 29.823900 # 1 UNK
2726 1 1 0.000000 18.252800 0.596240 28.489901 # 1 UNK
2727 1 1 0.000000 12.260200 25.211100 6.136890 # 1 UNK
2728 1 1 0.000000 32.709000 15.376000 32.851299 # 1 UNK
2729 1 1 0.000000 43.396099 12.963500 41.409901 # 1 UNK
2730 1 1 0.000000 46.197800 26.353600 43.755699 # 1 UNK
2731 1 1 0.000000 24.553600 46.176899 27.269699 # 1 UNK
2732 1 1 0.000000 40.362301 1.183950 35.336201 # 1 UNK
2733 1 1 0.000000 16.095100 32.215000 45.904400 # 1 UNK
2734 1 1 0.000000 17.158501 19.742500 38.743000 # 1 UNK
2735 1 1 0.000000 24.497299 27.666201 37.869499 # 1 UNK
2736 1 1 0.000000 26.665100 33.977600 39.543400 # 1 UNK
2737 1 1 0.000000 45.918098 8.928200 40.081600 # 1 UNK
2738 1 1 0.000000 22.400101 20.726999 26.355700 # 1 UNK
2739 1 1 0.000000 17.012600 42.813702 44.872101 # 1 UNK
2740 1 1 0.000000 25.428400 39.844501 38.020199 # 1 UNK
2741 1 1 0.000000 23.246500 34.416100 31.129999 # 1 UNK
2742 1 1 0.000000 31.906500 23.224701 29.854601 # 1 UNK
2743 1 1 0.000000 20.041800 32.753399 6.990720 # 1 UNK
2744 1 1 0.000000 46.512402 36.165798 18.064100 # 1 UNK
2745 1 1 0.000000 14.947900 44.698101 45.584900 # 1 UNK
2746 1 1 0.000000 44.243099 13.011500 32.826099 # 1 UNK
2747 1 1 0.000000 38.348801 26.813999 23.223600 # 1 UNK
2748 1 1 0.000000 10.270800 36.266602 8.050210 # 1 UNK
2749 1 1 0.000000 43.941101 27.345900 34.323002 # 1 UNK
2750 1 1 0.000000 38.456501 36.412201 30.318199 # 1 UNK
2751 1 1 0.000000 11.277300 22.905001 34.978401 # 1 UNK
2752 1 1 0.000000 11.339900 35.273899 0.229541 # 1 UNK
2753 1 1 0.000000 38.050999 30.764000 12.649800 # 1 UNK
2754 1 1 0.000000 33.872601 1.822740 24.311600 # 1 UNK
2755 1 1 0.000000 32.230202 19.038200 26.990999 # 1 UNK
2756 1 1 0.000000 11.597800 24.976601 37.048901 # 1 UNK
2757 1 1 0.000000 26.631800 33.155899 34.505199 # 1 UNK
2758 1 1 0.000000 12.310400 24.421700 25.997200 # 1 UNK
2759 1 1 0.000000 17.831400 21.797199 33.654099 # 1 UNK
2760 1 1 0.000000 32.271301 39.028900 27.919399 # 1 UNK
2761 1 1 0.000000 21.118000 42.777401 2.141610 # 1 UNK
2762 1 1 0.000000 2.465240 6.892760 44.388100 # 1 UNK
2763 1 1 0.000000 7.471310 0.674682 30.082800 # 1 UNK
2764 1 1 0.000000 19.760500 24.748199 15.382100 # 1 UNK
2765 1 1 0.000000 4.508130 36.648201 25.502399 # 1 UNK
2766 1 1 0.000000 11.782500 33.048801 17.208799 # 1 UNK
2767 1 1 0.000000 32.362801 0.150634 28.216400 # 1 UNK
2768 1 1 0.000000 37.088100 31.576200 21.925600 # 1 UNK
2769 1 1 0.000000 41.142399 39.441898 26.804600 # 1 UNK
2770 1 1 0.000000 5.356830 12.764800 31.699100 # 1 UNK
2771 1 1 0.000000 14.589600 35.139400 15.783000 # 1 UNK
2772 1 1 0.000000 21.994900 37.455799 33.688599 # 1 UNK
2773 1 1 0.000000 25.776600 20.707399 35.412899 # 1 UNK
2774 1 1 0.000000 8.587420 22.051201 38.007401 # 1 UNK
2775 1 1 0.000000 42.975700 42.600601 41.761299 # 1 UNK
2776 1 1 0.000000 37.333900 4.823850 37.947102 # 1 UNK
2777 1 1 0.000000 11.915800 33.376499 1.910250 # 1 UNK
2778 1 1 0.000000 4.136010 4.804690 25.055799 # 1 UNK
2779 1 1 0.000000 1.199660 15.034700 27.763599 # 1 UNK
2780 1 1 0.000000 31.580400 5.903530 37.757000 # 1 UNK
2781 1 1 0.000000 1.056400 37.535702 30.011900 # 1 UNK
2782 1 1 0.000000 43.937302 37.517399 40.815498 # 1 UNK
2783 1 1 0.000000 7.593580 17.663200 26.380301 # 1 UNK
2784 1 1 0.000000 28.771900 28.554701 26.652100 # 1 UNK
2785 1 1 0.000000 41.944302 13.468400 31.228800 # 1 UNK
2786 1 1 0.000000 42.333698 33.561298 28.766399 # 1 UNK
2787 1 1 0.000000 5.808750 33.421501 25.007900 # 1 UNK
2788 1 1 0.000000 4.925990 25.060801 10.636300 # 1 UNK
2789 1 1 0.000000 35.691700 32.640900 38.434299 # 1 UNK
2790 1 1 0.000000 45.046001 1.307090 44.094299 # 1 UNK
2791 1 1 0.000000 9.331190 28.624300 44.784901 # 1 UNK
2792 1 1 0.000000 9.935680 9.416230 33.105499 # 1 UNK
2793 1 1 0.000000 32.767399 21.825001 35.719299 # 1 UNK
2794 1 1 0.000000 44.494801 11.979100 38.351398 # 1 UNK
2795 1 1 0.000000 46.684101 34.794998 41.268200 # 1 UNK
2796 1 1 0.000000 3.518690 33.540401 35.198502 # 1 UNK
2797 1 1 0.000000 29.792700 9.159810 24.216200 # 1 UNK
2798 1 1 0.000000 29.154900 28.088800 43.498299 # 1 UNK
2799 1 1 0.000000 14.626300 22.078100 36.314800 # 1 UNK
2800 1 1 0.000000 35.119099 21.019899 27.851500 # 1 UNK
2801 1 1 0.000000 5.625490 7.367640 44.102402 # 1 UNK
2802 1 1 0.000000 15.593100 16.638399 31.670401 # 1 UNK
2803 1 1 0.000000 6.771240 33.498699 19.626101 # 1 UNK
2804 1 1 0.000000 14.962000 26.639299 43.013401 # 1 UNK
2805 1 1 0.000000 16.907801 34.508900 27.720400 # 1 UNK
2806 1 1 0.000000 44.520802 21.751499 46.921799 # 1 UNK
2807 1 1 0.000000 24.014999 37.344601 29.384899 # 1 UNK
2808 1 1 0.000000 39.356499 29.738400 31.671700 # 1 UNK
2809 1 1 0.000000 23.014400 32.579300 27.404301 # 1 UNK
2810 1 1 0.000000 32.840302 20.866501 46.784801 # 1 UNK
2811 1 1 0.000000 31.011200 27.985300 9.137190 # 1 UNK
2812 1 1 0.000000 44.406700 6.550000 34.183201 # 1 UNK
2813 1 1 0.000000 28.725201 39.833099 8.149100 # 1 UNK
2814 1 1 0.000000 46.646099 34.121601 34.499100 # 1 UNK
2815 1 1 0.000000 45.628300 29.129400 43.185600 # 1 UNK
2816 1 1 0.000000 39.448502 14.015200 33.630798 # 1 UNK
2817 1 1 0.000000 11.280900 41.246201 19.167700 # 1 UNK
2818 1 1 0.000000 28.385900 43.174301 34.606098 # 1 UNK
2819 1 1 0.000000 38.562500 30.325500 27.158001 # 1 UNK
2820 1 1 0.000000 42.487400 43.052601 37.652199 # 1 UNK
2821 1 1 0.000000 34.318298 31.245300 30.172100 # 1 UNK
2822 1 1 0.000000 39.861099 41.909599 32.211899 # 1 UNK
2823 1 1 0.000000 43.031898 37.401798 27.292101 # 1 UNK
2824 1 1 0.000000 42.232601 11.729400 28.945200 # 1 UNK
2825 1 1 0.000000 35.734901 39.373402 0.233298 # 1 UNK
2826 1 1 0.000000 40.182499 3.113190 30.756500 # 1 UNK
2827 1 1 0.000000 42.183800 36.807999 5.512040 # 1 UNK
2828 1 1 0.000000 34.578899 27.151501 18.965700 # 1 UNK
2829 1 1 0.000000 25.957899 1.064600 34.569000 # 1 UNK
2830 1 1 0.000000 39.170101 16.373899 37.321499 # 1 UNK
2831 1 1 0.000000 43.247101 29.021700 45.654701 # 1 UNK
2832 1 1 0.000000 27.054501 24.622601 33.952000 # 1 UNK
2833 1 1 0.000000 35.543201 23.892700 46.852299 # 1 UNK
2834 1 1 0.000000 32.767799 28.073799 46.386101 # 1 UNK
2835 1 1 0.000000 4.775250 42.004299 5.432750 # 1 UNK
2836 1 1 0.000000 30.643000 28.102301 28.661600 # 1 UNK
2837 1 1 0.000000 20.875000 16.936701 30.353701 # 1 UNK
2838 1 1 0.000000 26.456699 43.079399 3.368400 # 1 UNK
2839 1 1 0.000000 46.519001 45.998901 27.385799 # 1 UNK
2840 1 1 0.000000 36.304501 24.400700 14.931900 # 1 UNK
2841 1 1 0.000000 28.054600 17.173401 24.379000 # 1 UNK
2842 1 1 0.000000 39.965000 46.723400 44.238400 # 1 UNK
2843 1 1 0.000000 16.372900 45.564098 40.330299 # 1 UNK
2844 1 1 0.000000 32.637299 33.145302 23.867500 # 1 UNK
2845 1 1 0.000000 18.334499 29.857500 28.009899 # 1 UNK
2846 1 1 0.000000 12.337800 10.692400 29.063299 # 1 UNK
2847 1 1 0.000000 40.479599 25.029800 28.116100 # 1 UNK
2848 1 1 0.000000 43.238998 44.233501 18.593599 # 1 UNK
2849 1 1 0.000000 40.823898 44.901600 1.022220 # 1 UNK
2850 1 1 0.000000 19.237600 27.172800 36.687302 # 1 UNK
2851 1 1 0.000000 39.222801 33.416000 16.251400 # 1 UNK
2852 1 1 0.000000 35.008499 26.649500 44.974098 # 1 UNK
2853 1 1 0.000000 24.829901 8.097290 28.054199 # 1 UNK
2854 1 1 0.000000 5.179400 21.889601 38.751598 # 1 UNK
2855 1 1 0.000000 17.580099 27.648800 1.284890 # 1 UNK
2856 1 1 0.000000 43.731899 11.408400 43.720299 # 1 UNK
2857 1 1 0.000000 30.651600 36.018501 43.413799 # 1 UNK
2858 1 1 0.000000 30.644400 31.096001 9.674300 # 1 UNK
2859 1 1 0.000000 26.790800 39.209202 18.329100 # 1 UNK
2860 1 1 0.000000 23.567301 17.113300 33.963902 # 1 UNK
2861 1 1 0.000000 29.825701 42.959301 37.206600 # 1 UNK
2862 1 1 0.000000 24.719601 32.137901 1.496130 # 1 UNK
2863 1 1 0.000000 25.028500 24.991199 40.831200 # 1 UNK
2864 1 1 0.000000 37.375301 4.661440 32.003502 # 1 UNK
2865 1 1 0.000000 7.997610 44.866699 18.302200 # 1 UNK
2866 1 1 0.000000 8.937290 8.579050 39.034401 # 1 UNK
2867 1 1 0.000000 17.385700 43.591301 4.680900 # 1 UNK
2868 1 1 0.000000 17.056400 4.632770 27.922001 # 1 UNK
2869 1 1 0.000000 6.811350 26.954399 34.879501 # 1 UNK
2870 1 1 0.000000 18.261499 41.409000 19.698900 # 1 UNK
2871 1 1 0.000000 10.228800 36.541000 15.603700 # 1 UNK
2872 1 1 0.000000 21.450600 32.182098 30.601000 # 1 UNK
2873 1 1 0.000000 45.958401 45.409401 45.328201 # 1 UNK
2874 1 1 0.000000 18.350401 20.304399 27.224400 # 1 UNK
2875 1 1 0.000000 24.073400 31.263100 39.433899 # 1 UNK
2876 1 1 0.000000 29.903200 41.458401 19.135799 # 1 UNK
2877 1 1 0.000000 3.750070 32.260502 30.998800 # 1 UNK
2878 1 1 0.000000 42.813000 32.790100 45.760399 # 1 UNK
2879 1 1 0.000000 14.194700 38.245602 39.864799 # 1 UNK
2880 1 1 0.000000 16.193800 28.270800 34.428501 # 1 UNK
2881 1 1 0.000000 23.367399 2.939600 41.980701 # 1 UNK
2882 1 1 0.000000 41.011600 45.870701 11.247000 # 1 UNK
2883 1 1 0.000000 33.117599 26.417900 3.358820 # 1 UNK
2884 1 1 0.000000 30.591801 25.419901 34.114201 # 1 UNK
2885 1 1 0.000000 25.653099 20.909700 28.227400 # 1 UNK
2886 1 1 0.000000 19.781500 7.544360 32.042198 # 1 UNK
2887 1 1 0.000000 27.824200 44.223202 41.132999 # 1 UNK
2888 1 1 0.000000 32.125599 26.047600 21.979401 # 1 UNK
2889 1 1 0.000000 38.712502 46.248699 9.872360 # 1 UNK
2890 1 1 0.000000 14.972800 46.878502 42.256001 # 1 UNK
2891 1 1 0.000000 24.462601 35.115101 20.325800 # 1 UNK
2892 1 1 0.000000 38.277802 11.406300 44.883801 # 1 UNK
2893 1 1 0.000000 10.937700 7.756160 30.365499 # 1 UNK
2894 1 1 0.000000 16.502001 28.844500 20.231400 # 1 UNK
2895 1 1 0.000000 3.578750 13.940200 26.033400 # 1 UNK
2896 1 1 0.000000 10.272600 30.753799 26.772600 # 1 UNK
2897 1 1 0.000000 28.023300 34.537800 2.769440 # 1 UNK
2898 1 1 0.000000 38.303501 23.323999 22.602301 # 1 UNK
2899 1 1 0.000000 3.272140 28.182301 5.926190 # 1 UNK
2900 1 1 0.000000 0.356642 28.414000 37.307098 # 1 UNK
2901 1 1 0.000000 1.074100 41.947498 21.494301 # 1 UNK
2902 1 1 0.000000 1.453900 41.979900 45.408298 # 1 UNK
2903 1 1 0.000000 25.297701 16.680700 41.984402 # 1 UNK
2904 1 1 0.000000 33.365299 27.309799 7.968640 # 1 UNK
2905 1 1 0.000000 36.277000 46.528099 17.750299 # 1 UNK
2906 1 1 0.000000 29.467400 40.985699 5.332310 # 1 UNK
2907 1 1 0.000000 44.494900 44.167801 10.848600 # 1 UNK
2908 1 1 0.000000 19.735500 36.521400 22.061800 # 1 UNK
2909 1 1 0.000000 0.040002 0.201771 40.201000 # 1 UNK
2910 1 1 0.000000 24.764601 35.511799 37.863800 # 1 UNK
2911 1 1 0.000000 23.456900 31.469101 24.832800 # 1 UNK
2912 1 1 0.000000 35.081699 26.536400 33.698700 # 1 UNK
2913 1 1 0.000000 43.277500 35.525398 3.345870 # 1 UNK
2914 1 1 0.000000 44.728600 24.721001 27.356701 # 1 UNK
2915 1 1 0.000000 9.497860 28.108999 23.907801 # 1 UNK
2916 1 1 0.000000 13.707600 42.431499 1.865460 # 1 UNK
2917 1 1 0.000000 8.971000 11.371700 38.321602 # 1 UNK
2918 1 1 0.000000 12.589200 40.241001 21.194799 # 1 UNK
2919 1 1 0.000000 19.836800 0.322662 35.484100 # 1 UNK
2920 1 1 0.000000 22.488100 25.283800 40.294998 # 1 UNK
2921 1 1 0.000000 17.519501 8.701960 38.978600 # 1 UNK
2922 1 1 0.000000 31.696699 25.482401 36.654099 # 1 UNK
2923 1 1 0.000000 18.807301 37.558201 40.389801 # 1 UNK
2924 1 1 0.000000 29.674700 31.034800 15.223500 # 1 UNK
2925 1 1 0.000000 45.442799 34.839500 22.314800 # 1 UNK
2926 1 1 0.000000 46.279202 43.362801 0.190612 # 1 UNK
2927 1 1 0.000000 25.507200 45.644901 44.851501 # 1 UNK
2928 1 1 0.000000 43.070499 43.162998 6.339470 # 1 UNK
2929 1 1 0.000000 38.899700 2.710540 43.740200 # 1 UNK
2930 1 1 0.000000 17.326599 36.091801 17.725100 # 1 UNK
2931 1 1 0.000000 28.886101 24.454399 37.305302 # 1 UNK
2932 1 1 0.000000 16.691000 28.223000 29.587900 # 1 UNK
2933 1 1 0.000000 29.154800 46.012299 29.742399 # 1 UNK
2934 1 1 0.000000 35.656898 18.755400 43.703899 # 1 UNK
2935 1 1 0.000000 11.879400 18.917000 35.682701 # 1 UNK
2936 1 1 0.000000 12.637900 29.674299 40.228600 # 1 UNK
2937 1 1 0.000000 31.740101 14.906000 26.582199 # 1 UNK
2938 1 1 0.000000 30.688400 39.450500 1.253310 # 1 UNK
2939 1 1 0.000000 20.969101 45.895100 3.792780 # 1 UNK
2940 1 1 0.000000 21.830299 37.375801 45.305199 # 1 UNK
2941 1 1 0.000000 43.269001 4.323970 22.329100 # 1 UNK
2942 1 1 0.000000 45.298698 32.826302 27.137501 # 1 UNK
2943 1 1 0.000000 0.516106 24.572201 18.496000 # 1 UNK
2944 1 1 0.000000 24.179600 18.466101 27.116699 # 1 UNK
2945 1 2 0.000000 12.145300 6.280100 0.163052 # 2 UNK
2946 1 2 0.000000 18.094700 0.524202 6.191250 # 2 UNK
2947 1 2 0.000000 15.045900 0.619375 0.776625 # 2 UNK
2948 1 2 0.000000 20.879700 0.329177 0.805727 # 2 UNK
2949 1 2 0.000000 12.136100 3.463890 6.092160 # 2 UNK
2950 1 2 0.000000 12.125900 9.373790 6.169690 # 2 UNK
2951 1 2 0.000000 17.917900 6.294610 3.108080 # 2 UNK
2952 1 2 0.000000 18.125900 6.677970 9.141720 # 2 UNK
2953 1 2 0.000000 0.639580 18.476801 0.738697 # 2 UNK
2954 1 2 0.000000 6.415310 12.335300 6.335040 # 2 UNK
2955 1 2 0.000000 3.549330 12.365100 0.930575 # 2 UNK
2956 1 2 0.000000 9.308060 12.259000 0.379070 # 2 UNK
2957 1 2 0.000000 0.511825 15.264400 6.202390 # 2 UNK
2958 1 2 0.000000 0.548853 21.219999 5.974090 # 2 UNK
2959 1 2 0.000000 6.392940 18.346300 3.140000 # 2 UNK
2960 1 2 0.000000 6.305700 18.376200 9.324800 # 2 UNK
2961 1 2 0.000000 0.563368 6.641220 46.984600 # 2 UNK
2962 1 2 0.000000 6.118330 0.542704 6.235950 # 2 UNK
2963 1 2 0.000000 3.557920 0.734885 0.640516 # 2 UNK
2964 1 2 0.000000 8.989850 0.625372 0.905684 # 2 UNK
2965 1 2 0.000000 0.552499 3.364620 6.060910 # 2 UNK
2966 1 2 0.000000 0.483998 9.263330 6.056850 # 2 UNK
2967 1 2 0.000000 6.403020 6.862680 3.355730 # 2 UNK
2968 1 2 0.000000 6.258570 6.486130 9.263760 # 2 UNK
2969 1 2 0.000000 0.625816 6.244490 12.361500 # 2 UNK
2970 1 2 0.000000 6.383210 0.613650 18.501200 # 2 UNK
2971 1 2 0.000000 3.422480 0.475424 12.000800 # 2 UNK
2972 1 2 0.000000 9.230230 0.436444 12.232600 # 2 UNK
2973 1 2 0.000000 0.605271 3.382330 18.124500 # 2 UNK
2974 1 2 0.000000 0.662588 9.216610 18.615900 # 2 UNK
2975 1 2 0.000000 6.332310 6.353070 15.457700 # 2 UNK
2976 1 2 0.000000 6.732930 6.262960 21.599800 # 2 UNK
2977 1 2 0.000000 11.921200 18.295401 0.108980 # 2 UNK
2978 1 2 0.000000 18.040701 12.430700 6.114630 # 2 UNK
2979 1 2 0.000000 14.950300 12.843400 0.249899 # 2 UNK
2980 1 2 0.000000 21.040400 12.530200 0.584840 # 2 UNK
2981 1 2 0.000000 12.188600 15.326900 6.041330 # 2 UNK
2982 1 2 0.000000 12.165200 21.191999 6.107450 # 2 UNK
2983 1 2 0.000000 18.165300 18.283899 3.112870 # 2 UNK
2984 1 2 0.000000 18.013300 18.388901 9.228400 # 2 UNK
2985 1 2 0.000000 12.226000 6.449550 12.216600 # 2 UNK
2986 1 2 0.000000 18.069401 0.406307 18.006800 # 2 UNK
2987 1 2 0.000000 15.099400 0.386893 12.318500 # 2 UNK
2988 1 2 0.000000 21.067499 0.423082 12.226300 # 2 UNK
2989 1 2 0.000000 12.217900 3.476930 18.191200 # 2 UNK
2990 1 2 0.000000 12.159000 9.398030 18.429100 # 2 UNK
2991 1 2 0.000000 17.995199 6.614900 15.127700 # 2 UNK
2992 1 2 0.000000 18.125500 6.586090 21.153099 # 2 UNK
2993 1 2 0.000000 0.566960 18.242001 12.347300 # 2 UNK
2994 1 2 0.000000 6.412490 12.309800 18.486401 # 2 UNK
2995 1 2 0.000000 3.436440 12.192700 12.305100 # 2 UNK
2996 1 2 0.000000 9.342230 12.245100 12.268500 # 2 UNK
2997 1 2 0.000000 0.574088 15.167600 18.506399 # 2 UNK
2998 1 2 0.000000 0.478954 21.093901 18.557699 # 2 UNK
2999 1 2 0.000000 6.506770 18.088600 15.415300 # 2 UNK
3000 1 2 0.000000 6.381390 18.289600 21.589399 # 2 UNK
3001 1 2 0.000000 12.256400 18.224501 12.313800 # 2 UNK
3002 1 2 0.000000 18.107800 12.380100 18.227900 # 2 UNK
3003 1 2 0.000000 15.155800 12.392600 12.264900 # 2 UNK
3004 1 2 0.000000 21.098600 12.399500 12.180700 # 2 UNK
3005 1 2 0.000000 12.124300 15.281100 18.666500 # 2 UNK
3006 1 2 0.000000 12.313300 21.108200 18.512400 # 2 UNK
3007 1 2 0.000000 17.925501 18.164000 15.353600 # 2 UNK
3008 1 2 0.000000 17.945601 17.961500 21.438700 # 2 UNK
3009 1 2 0.000000 35.935001 6.505260 0.383948 # 2 UNK
3010 1 2 0.000000 41.968899 0.378387 6.052430 # 2 UNK
3011 1 2 0.000000 38.737801 0.786370 0.768397 # 2 UNK
3012 1 2 0.000000 44.407799 0.316246 0.408195 # 2 UNK
3013 1 2 0.000000 35.952801 3.383660 6.205390 # 2 UNK
3014 1 2 0.000000 36.158199 9.357220 6.088830 # 2 UNK
3015 1 2 0.000000 41.882301 6.117880 3.231150 # 2 UNK
3016 1 2 0.000000 42.062099 6.134930 9.228460 # 2 UNK
3017 1 2 0.000000 24.109800 18.345400 0.059639 # 2 UNK
3018 1 2 0.000000 30.075701 12.254600 6.275150 # 2 UNK
3019 1 2 0.000000 27.172300 12.296900 0.886699 # 2 UNK
3020 1 2 0.000000 32.871399 12.160600 0.960063 # 2 UNK
3021 1 2 0.000000 24.098700 15.276500 6.129400 # 2 UNK
3022 1 2 0.000000 24.095501 21.205700 6.155060 # 2 UNK
3023 1 2 0.000000 29.963100 18.266001 3.454930 # 2 UNK
3024 1 2 0.000000 30.107599 18.184099 9.385260 # 2 UNK
3025 1 2 0.000000 23.945999 6.315510 0.054234 # 2 UNK
3026 1 2 0.000000 29.897699 0.408580 6.285450 # 2 UNK
3027 1 2 0.000000 27.089300 0.434265 0.680209 # 2 UNK
3028 1 2 0.000000 32.896099 0.436637 0.801206 # 2 UNK
3029 1 2 0.000000 23.960800 3.457970 5.958860 # 2 UNK
3030 1 2 0.000000 23.962299 9.314340 6.127050 # 2 UNK
3031 1 2 0.000000 29.814100 6.034980 3.242220 # 2 UNK
3032 1 2 0.000000 29.676100 6.397550 9.233020 # 2 UNK
3033 1 2 0.000000 23.968000 6.467100 12.156600 # 2 UNK
3034 1 2 0.000000 30.042601 0.407708 18.036200 # 2 UNK
3035 1 2 0.000000 26.936399 0.382130 12.181800 # 2 UNK
3036 1 2 0.000000 33.014400 0.606990 12.114500 # 2 UNK
3037 1 2 0.000000 24.019300 3.381010 18.231800 # 2 UNK
3038 1 2 0.000000 24.198601 9.362980 18.281200 # 2 UNK
3039 1 2 0.000000 29.991100 6.357050 15.150200 # 2 UNK
3040 1 2 0.000000 29.851601 6.279760 21.229300 # 2 UNK
3041 1 2 0.000000 35.959499 18.306900 0.119356 # 2 UNK
3042 1 2 0.000000 41.804100 12.381800 6.235480 # 2 UNK
3043 1 2 0.000000 39.291199 12.114000 0.803769 # 2 UNK
3044 1 2 0.000000 44.510399 12.469200 0.870894 # 2 UNK
3045 1 2 0.000000 35.991600 15.249300 6.212220 # 2 UNK
3046 1 2 0.000000 35.968498 21.200500 6.260950 # 2 UNK
3047 1 2 0.000000 41.826199 18.533300 3.087990 # 2 UNK
3048 1 2 0.000000 41.933899 18.211800 9.283740 # 2 UNK
3049 1 2 0.000000 35.978199 6.297700 12.174600 # 2 UNK
3050 1 2 0.000000 41.894699 0.324311 18.305201 # 2 UNK
3051 1 2 0.000000 38.965698 0.525765 12.157100 # 2 UNK
3052 1 2 0.000000 44.781898 0.540523 12.641800 # 2 UNK
3053 1 2 0.000000 35.942600 3.364850 18.209900 # 2 UNK
3054 1 2 0.000000 35.957100 9.258690 18.487200 # 2 UNK
3055 1 2 0.000000 42.071301 6.143310 15.313400 # 2 UNK
3056 1 2 0.000000 41.490101 6.631330 21.270201 # 2 UNK
3057 1 2 0.000000 24.045099 18.186199 12.296800 # 2 UNK
3058 1 2 0.000000 30.095600 12.330500 18.291500 # 2 UNK
3059 1 2 0.000000 27.062099 12.326900 12.272900 # 2 UNK
3060 1 2 0.000000 33.051300 12.211400 12.204600 # 2 UNK
3061 1 2 0.000000 24.176800 15.274400 18.364100 # 2 UNK
3062 1 2 0.000000 24.144100 21.107599 18.353901 # 2 UNK
3063 1 2 0.000000 30.264299 18.084400 15.343900 # 2 UNK
3064 1 2 0.000000 30.308100 18.259399 21.505600 # 2 UNK
3065 1 2 0.000000 36.010399 18.249599 12.291000 # 2 UNK
3066 1 2 0.000000 41.787601 12.206500 18.358400 # 2 UNK
3067 1 2 0.000000 38.889301 12.017400 12.230800 # 2 UNK
3068 1 2 0.000000 44.765598 12.376200 12.364000 # 2 UNK
3069 1 2 0.000000 35.954102 15.208300 18.619101 # 2 UNK
3070 1 2 0.000000 36.112701 21.122299 18.602900 # 2 UNK
3071 1 2 0.000000 41.695900 18.286600 15.422100 # 2 UNK
3072 1 2 0.000000 41.778500 17.629499 21.299101 # 2 UNK
3073 1 2 0.000000 7.431010 30.579399 14.657900 # 2 UNK
3074 1 2 0.000000 28.483700 31.014500 35.545399 # 2 UNK
3075 1 2 0.000000 8.282980 39.863998 10.270200 # 2 UNK
3076 1 2 0.000000 12.778900 34.482800 6.230890 # 2 UNK
3077 1 2 0.000000 27.484900 23.641399 12.679900 # 2 UNK
3078 1 2 0.000000 21.578300 38.395500 39.387402 # 2 UNK
3079 1 2 0.000000 29.113701 23.141899 45.798599 # 2 UNK
3080 1 2 0.000000 21.098101 20.542101 32.072102 # 2 UNK
3081 1 2 0.000000 2.800160 42.179699 8.397910 # 2 UNK
3082 1 2 0.000000 26.181299 30.601000 14.514600 # 2 UNK
3083 1 2 0.000000 33.801300 38.412300 2.448910 # 2 UNK
3084 1 2 0.000000 6.870230 24.691799 32.881001 # 2 UNK
3085 1 2 0.000000 13.140700 29.963400 10.896400 # 2 UNK
3086 1 2 0.000000 16.868099 38.970501 8.959680 # 2 UNK
3087 1 2 0.000000 13.052800 11.676800 32.294800 # 2 UNK
3088 1 2 0.000000 40.293499 42.751099 46.000000 # 2 UNK
3089 1 2 0.000000 4.257930 26.776899 44.383701 # 2 UNK
3090 1 2 0.000000 7.855030 25.727900 3.135880 # 2 UNK
3091 1 2 0.000000 10.586400 24.893499 44.999901 # 2 UNK
3092 1 2 0.000000 11.554900 30.966900 0.298267 # 2 UNK
3093 1 2 0.000000 44.976898 39.915100 6.594400 # 2 UNK
3094 1 2 0.000000 42.977100 31.819700 11.004000 # 2 UNK
3095 1 2 0.000000 6.415660 27.755899 10.058900 # 2 UNK
3096 1 2 0.000000 3.801710 31.624300 13.234300 # 2 UNK
3097 1 2 0.000000 9.678580 23.441799 12.318100 # 2 UNK
3098 1 2 0.000000 46.974400 27.382601 11.474400 # 2 UNK
3099 1 2 0.000000 45.285900 30.871401 29.561001 # 2 UNK
3100 1 2 0.000000 18.405899 29.553200 23.161301 # 2 UNK
3101 1 2 0.000000 38.219601 35.089100 10.681300 # 2 UNK
3102 1 2 0.000000 41.849701 23.449800 18.414101 # 2 UNK
3103 1 2 0.000000 15.269700 30.155100 18.152901 # 2 UNK
3104 1 2 0.000000 2.852540 23.249300 12.426900 # 2 UNK
3105 1 2 0.000000 21.473499 32.717400 36.866901 # 2 UNK
3106 1 2 0.000000 19.292801 43.177601 7.602410 # 2 UNK
3107 1 2 0.000000 18.374300 30.811701 0.578579 # 2 UNK
3108 1 2 0.000000 2.971080 34.548500 41.045799 # 2 UNK
3109 1 2 0.000000 16.135799 29.466900 41.947701 # 2 UNK
3110 1 2 0.000000 4.511640 29.777700 3.496000 # 2 UNK
3111 1 2 0.000000 28.825399 36.607101 0.462030 # 2 UNK
3112 1 2 0.000000 19.753799 34.906200 10.883900 # 2 UNK
3113 1 2 0.000000 38.854500 42.343899 20.248800 # 2 UNK
3114 1 2 0.000000 18.065399 23.679501 17.715099 # 2 UNK
3115 1 2 0.000000 13.628700 25.615299 11.348400 # 2 UNK
3116 1 2 0.000000 21.638901 23.158100 12.398100 # 2 UNK
3117 1 2 0.000000 30.983801 33.095100 29.826000 # 2 UNK
3118 1 2 0.000000 16.966200 42.821400 26.732401 # 2 UNK
3119 1 2 0.000000 14.473900 35.240501 11.417500 # 2 UNK
3120 1 2 0.000000 16.998199 32.285500 26.816200 # 2 UNK
3121 1 2 0.000000 9.678000 44.393902 10.216600 # 2 UNK
3122 1 2 0.000000 4.464340 36.969601 20.076401 # 2 UNK
3123 1 2 0.000000 14.559600 42.527199 18.630600 # 2 UNK
3124 1 2 0.000000 17.167101 36.499901 20.865900 # 2 UNK
3125 1 2 0.000000 2.463300 39.776699 37.420601 # 2 UNK
3126 1 2 0.000000 14.329300 41.892101 14.543900 # 2 UNK
3127 1 2 0.000000 1.944420 33.195499 17.066500 # 2 UNK
3128 1 2 0.000000 18.248899 38.375900 32.740898 # 2 UNK
3129 1 2 0.000000 44.615700 45.664902 4.718290 # 2 UNK
3130 1 2 0.000000 24.455700 2.336480 25.295099 # 2 UNK
3131 1 2 0.000000 10.203100 39.571400 12.982000 # 2 UNK
3132 1 2 0.000000 18.666100 25.497101 12.590800 # 2 UNK
3133 1 2 0.000000 12.165000 46.323002 24.920799 # 2 UNK
3134 1 2 0.000000 12.824300 43.280998 22.286301 # 2 UNK
3135 1 2 0.000000 16.537100 35.669498 44.662300 # 2 UNK
3136 1 2 0.000000 34.251900 38.797501 36.530300 # 2 UNK
3137 1 2 0.000000 0.849369 30.363199 41.309101 # 2 UNK
3138 1 2 0.000000 38.905602 30.595200 44.363201 # 2 UNK
3139 1 2 0.000000 38.482101 22.790701 47.145401 # 2 UNK
3140 1 2 0.000000 3.309750 20.391500 45.868599 # 2 UNK
3141 1 2 0.000000 35.987900 29.813900 46.472599 # 2 UNK
3142 1 2 0.000000 34.290501 32.652401 41.545700 # 2 UNK
3143 1 2 0.000000 7.217370 31.114901 18.462799 # 2 UNK
3144 1 2 0.000000 0.853755 44.505798 10.859700 # 2 UNK
3145 1 2 0.000000 29.850100 29.594500 46.511398 # 2 UNK
3146 1 2 0.000000 32.972698 44.271599 19.732000 # 2 UNK
3147 1 2 0.000000 20.884600 30.169201 5.793510 # 2 UNK
3148 1 2 0.000000 24.454800 31.466600 30.422800 # 2 UNK
3149 1 2 0.000000 29.562000 25.961399 11.797600 # 2 UNK
3150 1 2 0.000000 18.104200 35.293800 7.893520 # 2 UNK
3151 1 2 0.000000 31.550501 38.326801 7.312450 # 2 UNK
3152 1 2 0.000000 39.295700 28.997400 10.638900 # 2 UNK
3153 1 2 0.000000 34.007599 30.740299 3.601640 # 2 UNK
3154 1 2 0.000000 30.290400 23.487700 6.134870 # 2 UNK
3155 1 2 0.000000 38.061901 30.960501 37.622101 # 2 UNK
3156 1 2 0.000000 32.536201 23.772900 0.250835 # 2 UNK
3157 1 2 0.000000 22.211000 33.692101 0.078554 # 2 UNK
3158 1 2 0.000000 28.508900 36.810600 15.711800 # 2 UNK
3159 1 2 0.000000 6.079770 29.614901 39.342602 # 2 UNK
3160 1 2 0.000000 28.011499 44.213001 15.059200 # 2 UNK
3161 1 2 0.000000 23.440100 26.217800 18.847099 # 2 UNK
3162 1 2 0.000000 21.205099 36.478199 6.774320 # 2 UNK
3163 1 2 0.000000 12.460100 25.785801 15.672400 # 2 UNK
3164 1 2 0.000000 31.430700 28.010500 18.350000 # 2 UNK
3165 1 2 0.000000 26.350201 26.027100 23.806601 # 2 UNK
3166 1 2 0.000000 41.775398 6.012720 26.031000 # 2 UNK
3167 1 2 0.000000 38.808399 30.740200 6.956130 # 2 UNK
3168 1 2 0.000000 30.521799 23.307400 18.428400 # 2 UNK
3169 1 2 0.000000 44.823200 12.908000 29.211800 # 2 UNK
3170 1 2 0.000000 9.649720 40.844200 43.495899 # 2 UNK
3171 1 2 0.000000 3.139410 44.060200 3.768340 # 2 UNK
3172 1 2 0.000000 43.387501 25.971500 8.117080 # 2 UNK
3173 1 2 0.000000 41.627998 36.211899 46.918301 # 2 UNK
3174 1 2 0.000000 38.283401 42.686298 16.184500 # 2 UNK
3175 1 2 0.000000 27.011900 39.125599 10.827100 # 2 UNK
3176 1 2 0.000000 43.435902 41.386501 9.536690 # 2 UNK
3177 1 2 0.000000 9.088230 35.067902 12.413800 # 2 UNK
3178 1 2 0.000000 42.212299 27.252100 37.510300 # 2 UNK
3179 1 2 0.000000 38.994900 23.088800 13.863800 # 2 UNK
3180 1 2 0.000000 44.751400 23.171200 13.256900 # 2 UNK
3181 1 2 0.000000 43.694000 28.509701 1.537870 # 2 UNK
3182 1 2 0.000000 35.958401 26.004000 6.516360 # 2 UNK
3183 1 2 0.000000 33.000301 29.080000 10.786400 # 2 UNK
3184 1 2 0.000000 40.810398 28.560301 5.278880 # 2 UNK
3185 1 2 0.000000 31.554199 42.798100 8.054020 # 2 UNK
3186 1 2 0.000000 27.846399 44.027401 23.436300 # 2 UNK
3187 1 2 0.000000 8.411780 36.728600 23.079300 # 2 UNK
3188 1 2 0.000000 31.465000 43.803699 28.467899 # 2 UNK
3189 1 2 0.000000 38.894501 37.628502 18.813200 # 2 UNK
3190 1 2 0.000000 35.933201 39.803101 20.310301 # 2 UNK
3191 1 2 0.000000 44.386799 41.056999 17.479200 # 2 UNK
3192 1 2 0.000000 44.945400 35.360401 12.208900 # 2 UNK
3193 1 2 0.000000 46.202400 38.844501 27.673599 # 2 UNK
3194 1 2 0.000000 46.817902 40.941700 1.444720 # 2 UNK
3195 1 2 0.000000 1.512730 27.454300 20.097200 # 2 UNK
3196 1 2 0.000000 41.421501 41.319199 14.405400 # 2 UNK
3197 1 2 0.000000 43.725399 0.015547 24.581600 # 2 UNK
3198 1 2 0.000000 2.566860 42.073601 19.008101 # 2 UNK
3199 1 2 0.000000 11.658200 39.016998 8.055370 # 2 UNK
3200 1 2 0.000000 8.102790 41.120499 21.577499 # 2 UNK
3201 1 2 0.000000 11.886400 6.670550 23.723000 # 2 UNK
3202 1 2 0.000000 3.540140 45.004902 29.957500 # 2 UNK
3203 1 2 0.000000 13.492300 27.638700 27.873800 # 2 UNK
3204 1 2 0.000000 29.935301 6.855700 27.398800 # 2 UNK
3205 1 2 0.000000 4.902070 41.320099 28.304501 # 2 UNK
3206 1 2 0.000000 9.784920 43.315399 16.409201 # 2 UNK
3207 1 2 0.000000 23.368000 6.734400 42.482101 # 2 UNK
3208 1 2 0.000000 38.855301 36.738499 6.480040 # 2 UNK
3209 1 2 0.000000 44.271500 23.161200 24.148100 # 2 UNK
3210 1 2 0.000000 7.727630 35.834301 18.386801 # 2 UNK
3211 1 2 0.000000 10.287500 15.786100 27.923901 # 2 UNK
3212 1 2 0.000000 16.534901 8.326030 28.877899 # 2 UNK
3213 1 2 0.000000 31.216299 8.374010 33.241402 # 2 UNK
3214 1 2 0.000000 4.488990 35.414600 2.327900 # 2 UNK
3215 1 2 0.000000 45.393600 34.328201 1.028300 # 2 UNK
3216 1 2 0.000000 43.280701 45.079201 45.311199 # 2 UNK
3217 1 2 0.000000 0.979744 6.041620 23.530800 # 2 UNK
3218 1 2 0.000000 46.803902 32.770401 44.281799 # 2 UNK
3219 1 2 0.000000 1.714740 32.065800 22.511700 # 2 UNK
3220 1 2 0.000000 3.270780 2.513730 35.773102 # 2 UNK
3221 1 2 0.000000 0.687100 27.858801 31.506001 # 2 UNK
3222 1 2 0.000000 1.889850 41.770901 25.068899 # 2 UNK
3223 1 2 0.000000 29.142900 25.640800 30.606800 # 2 UNK
3224 1 2 0.000000 19.580299 27.263901 40.918499 # 2 UNK
3225 1 2 0.000000 45.102501 42.713402 39.086800 # 2 UNK
3226 1 2 0.000000 37.826698 47.136700 29.317101 # 2 UNK
3227 1 2 0.000000 39.307301 22.772200 39.734402 # 2 UNK
3228 1 2 0.000000 41.693401 29.415501 19.533800 # 2 UNK
3229 1 2 0.000000 38.211899 18.514601 29.123100 # 2 UNK
3230 1 2 0.000000 45.972301 17.207100 43.783798 # 2 UNK
3231 1 2 0.000000 40.636398 44.644501 39.779400 # 2 UNK
3232 1 2 0.000000 4.872850 41.094002 42.587898 # 2 UNK
3233 1 2 0.000000 12.597100 17.966999 24.878300 # 2 UNK
3234 1 2 0.000000 33.990700 43.175098 34.023201 # 2 UNK
3235 1 2 0.000000 15.911600 11.990700 23.655100 # 2 UNK
3236 1 2 0.000000 25.063999 12.525600 29.830500 # 2 UNK
3237 1 2 0.000000 39.162899 27.558300 28.487200 # 2 UNK
3238 1 2 0.000000 4.692960 13.352300 41.430000 # 2 UNK
3239 1 2 0.000000 33.716999 18.873400 34.441002 # 2 UNK
3240 1 2 0.000000 14.877500 36.312500 28.856001 # 2 UNK
3241 1 2 0.000000 1.491090 7.818030 32.382702 # 2 UNK
3242 1 2 0.000000 19.916599 38.276100 1.142070 # 2 UNK
3243 1 2 0.000000 0.924487 0.043846 43.080002 # 2 UNK
3244 1 2 0.000000 20.081499 26.701300 7.307670 # 2 UNK
3245 1 2 0.000000 46.471699 3.796430 44.852798 # 2 UNK
3246 1 2 0.000000 23.763300 10.205100 34.291302 # 2 UNK
3247 1 2 0.000000 7.639940 19.510900 36.517700 # 2 UNK
3248 1 2 0.000000 38.833302 35.680302 42.102299 # 2 UNK
3249 1 2 0.000000 5.370350 31.779301 45.151100 # 2 UNK
3250 1 2 0.000000 21.765600 33.083302 43.046398 # 2 UNK
3251 1 2 0.000000 0.428545 6.537180 41.206200 # 2 UNK
3252 1 2 0.000000 38.181301 3.723040 25.817600 # 2 UNK
3253 1 2 0.000000 42.177101 39.809399 0.583376 # 2 UNK
3254 1 2 0.000000 24.558399 42.517300 36.652901 # 2 UNK
3255 1 2 0.000000 6.661360 22.881901 26.126600 # 2 UNK
3256 1 2 0.000000 5.796890 40.796398 12.346200 # 2 UNK
3257 1 2 0.000000 19.306299 23.097099 26.476101 # 2 UNK
3258 1 2 0.000000 3.698310 26.515800 34.618599 # 2 UNK
3259 1 2 0.000000 15.746800 24.969500 7.648640 # 2 UNK
3260 1 2 0.000000 1.147610 15.776100 36.759399 # 2 UNK
3261 1 2 0.000000 8.094070 24.794800 37.465500 # 2 UNK
3262 1 2 0.000000 14.030300 16.656500 44.673000 # 2 UNK
3263 1 2 0.000000 0.143988 11.985100 39.438202 # 2 UNK
3264 1 2 0.000000 26.629801 18.779200 30.468000 # 2 UNK
3265 1 2 0.000000 36.624901 45.952301 24.344299 # 2 UNK
3266 1 2 0.000000 18.330700 44.366501 21.519501 # 2 UNK
3267 1 2 0.000000 34.741600 32.843201 20.551600 # 2 UNK
3268 1 2 0.000000 0.519521 17.147900 29.884600 # 2 UNK
3269 1 2 0.000000 26.588800 30.054899 2.830490 # 2 UNK
3270 1 2 0.000000 31.780899 41.906502 43.709801 # 2 UNK
3271 1 2 0.000000 36.416302 23.991899 24.699301 # 2 UNK
3272 1 2 0.000000 5.922860 30.908400 23.427700 # 2 UNK
3273 1 2 0.000000 23.808599 17.433701 24.088400 # 2 UNK
3274 1 2 0.000000 32.097401 38.324799 41.068802 # 2 UNK
3275 1 2 0.000000 27.315500 11.961300 23.715200 # 2 UNK
3276 1 2 0.000000 38.378399 13.150700 23.475901 # 2 UNK
3277 1 2 0.000000 17.406500 24.547701 32.709702 # 2 UNK
3278 1 2 0.000000 3.233090 24.857500 22.076599 # 2 UNK
3279 1 2 0.000000 22.470800 35.716301 14.531800 # 2 UNK
3280 1 2 0.000000 22.687000 35.320202 25.284401 # 2 UNK
3281 1 2 0.000000 35.388599 42.964500 28.264700 # 2 UNK
3282 1 2 0.000000 41.878300 15.636300 32.738899 # 2 UNK
3283 1 2 0.000000 35.237701 38.744202 14.444300 # 2 UNK
3284 1 2 0.000000 27.951000 0.769851 39.802299 # 2 UNK
3285 1 2 0.000000 29.401100 42.756500 2.028080 # 2 UNK
3286 1 2 0.000000 27.864799 30.919701 19.445400 # 2 UNK
3287 1 2 0.000000 44.295601 46.806000 38.815498 # 2 UNK
3288 1 2 0.000000 0.792369 32.702400 11.580300 # 2 UNK
3289 1 2 0.000000 23.845100 30.255899 10.772500 # 2 UNK
3290 1 2 0.000000 32.099300 40.987400 11.415400 # 2 UNK
3291 1 2 0.000000 36.444901 29.053101 25.073400 # 2 UNK
3292 1 2 0.000000 5.756280 11.235900 35.128201 # 2 UNK
3293 1 2 0.000000 41.664101 10.622500 31.826900 # 2 UNK
3294 1 2 0.000000 25.025000 42.680801 43.327801 # 2 UNK
3295 1 2 0.000000 45.989101 2.339760 30.913799 # 2 UNK
3296 1 2 0.000000 23.181700 21.956301 41.559399 # 2 UNK
3297 1 2 0.000000 35.776901 18.217600 23.497601 # 2 UNK
3298 1 2 0.000000 28.794701 35.771000 27.594400 # 2 UNK
3299 1 2 0.000000 44.742802 11.817700 23.263700 # 2 UNK
3300 1 2 0.000000 44.594898 3.372280 36.317600 # 2 UNK
3301 1 2 0.000000 9.175750 13.608600 32.681900 # 2 UNK
3302 1 2 0.000000 37.629101 23.918100 32.350498 # 2 UNK
3303 1 2 0.000000 33.887901 24.429899 35.965099 # 2 UNK
3304 1 2 0.000000 16.555901 19.149799 34.559502 # 2 UNK
3305 1 2 0.000000 23.758699 23.838301 29.632000 # 2 UNK
3306 1 2 0.000000 28.882500 13.671200 31.107800 # 2 UNK
3307 1 2 0.000000 12.763600 40.385601 35.835400 # 2 UNK
3308 1 2 0.000000 32.186501 33.686401 8.701310 # 2 UNK
3309 1 2 0.000000 37.827702 14.442100 45.569199 # 2 UNK
3310 1 2 0.000000 45.548500 7.794770 27.069401 # 2 UNK
3311 1 2 0.000000 14.566900 43.506901 40.932899 # 2 UNK
3312 1 2 0.000000 8.271420 5.550660 43.336899 # 2 UNK
3313 1 2 0.000000 21.242599 29.343901 26.302900 # 2 UNK
3314 1 2 0.000000 32.245399 10.861600 43.235600 # 2 UNK
3315 1 2 0.000000 45.680698 23.359900 44.736801 # 2 UNK
3316 1 2 0.000000 42.793701 9.149170 37.070000 # 2 UNK
3317 1 2 0.000000 34.674900 2.002150 30.479700 # 2 UNK
3318 1 2 0.000000 21.866400 34.710899 28.788099 # 2 UNK
3319 1 2 0.000000 32.856098 32.748402 32.387798 # 2 UNK
3320 1 2 0.000000 29.800100 22.030600 33.508202 # 2 UNK
3321 1 2 0.000000 40.084400 11.850700 42.580799 # 2 UNK
3322 1 2 0.000000 43.852001 20.463100 33.971298 # 2 UNK
3323 1 2 0.000000 26.749701 -0.049616 42.643799 # 2 UNK
3324 1 2 0.000000 8.533700 36.780602 4.851780 # 2 UNK
3325 1 2 0.000000 32.725300 39.159401 32.337002 # 2 UNK
3326 1 2 0.000000 0.459074 36.629299 20.701099 # 2 UNK
3327 1 2 0.000000 11.182300 13.025700 39.225601 # 2 UNK
3328 1 2 0.000000 9.329620 20.503099 30.371500 # 2 UNK
3329 1 2 0.000000 9.147320 38.864601 18.395300 # 2 UNK
3330 1 2 0.000000 9.407680 13.306300 23.291000 # 2 UNK
3331 1 2 0.000000 8.838480 26.649099 26.832899 # 2 UNK
3332 1 2 0.000000 22.961201 28.222300 34.845402 # 2 UNK
3333 1 2 0.000000 42.994301 18.113600 39.970901 # 2 UNK
3334 1 2 0.000000 22.299999 43.765999 17.792801 # 2 UNK
3335 1 2 0.000000 15.398800 3.642440 25.585100 # 2 UNK
3336 1 2 0.000000 22.526600 3.816690 32.567200 # 2 UNK
3337 1 2 0.000000 40.904400 39.627899 31.438601 # 2 UNK
3338 1 2 0.000000 45.565701 42.939800 30.205400 # 2 UNK
3339 1 2 0.000000 5.742500 42.692799 16.324699 # 2 UNK
3340 1 2 0.000000 12.252200 31.919300 24.045799 # 2 UNK
3341 1 2 0.000000 46.055599 36.548199 32.347801 # 2 UNK
3342 1 2 0.000000 37.320000 41.193802 43.127102 # 2 UNK
3343 1 2 0.000000 7.160460 43.329102 4.299460 # 2 UNK
3344 1 2 0.000000 6.683530 2.038260 43.798000 # 2 UNK
3345 1 2 0.000000 38.209400 41.957401 6.543530 # 2 UNK
3346 1 2 0.000000 21.981600 30.441299 21.536200 # 2 UNK
3347 1 2 0.000000 45.793098 27.550699 15.704600 # 2 UNK
3348 1 2 0.000000 14.666100 29.581600 22.698799 # 2 UNK
3349 1 2 0.000000 5.245760 24.000299 40.444302 # 2 UNK
3350 1 2 0.000000 15.488700 23.850599 23.930099 # 2 UNK
3351 1 2 0.000000 2.043170 29.592699 28.634199 # 2 UNK
3352 1 2 0.000000 42.236099 23.166100 29.896099 # 2 UNK
3353 1 2 0.000000 36.372002 34.848400 34.146500 # 2 UNK
3354 1 2 0.000000 25.968100 36.278099 43.255100 # 2 UNK
3355 1 2 0.000000 12.195000 31.483299 30.075800 # 2 UNK
3356 1 2 0.000000 8.157610 18.057899 42.796799 # 2 UNK
3357 1 2 0.000000 0.102792 26.457100 39.828300 # 2 UNK
3358 1 2 0.000000 16.482300 34.759998 38.098099 # 2 UNK
3359 1 2 0.000000 41.072899 35.702801 30.345400 # 2 UNK
3360 1 2 0.000000 43.485500 5.313410 31.192101 # 2 UNK
3361 1 2 0.000000 0.762765 14.249500 43.044800 # 2 UNK
3362 1 2 0.000000 27.881500 19.989401 42.234100 # 2 UNK
3363 1 2 0.000000 11.042000 22.101200 40.917301 # 2 UNK
3364 1 2 0.000000 23.379900 40.137199 20.856199 # 2 UNK
3365 1 2 0.000000 21.261000 31.653601 9.728030 # 2 UNK
3366 1 2 0.000000 44.678398 40.891102 45.551800 # 2 UNK
3367 1 2 0.000000 25.323601 32.728298 22.941700 # 2 UNK
3368 1 2 0.000000 10.092600 0.308366 32.754398 # 2 UNK
3369 1 2 0.000000 6.716590 18.075600 29.726601 # 2 UNK
3370 1 2 0.000000 32.115601 35.958599 37.464802 # 2 UNK
3371 1 2 0.000000 3.814630 30.276300 18.086901 # 2 UNK
3372 1 2 0.000000 4.631940 21.274200 35.162498 # 2 UNK
3373 1 2 0.000000 25.922600 38.134102 32.448799 # 2 UNK
3374 1 2 0.000000 4.238400 9.777470 28.623400 # 2 UNK
3375 1 2 0.000000 19.132401 26.688299 29.605900 # 2 UNK
3376 1 2 0.000000 27.304199 29.050501 8.514810 # 2 UNK
3377 1 2 0.000000 6.119200 24.005199 17.030001 # 2 UNK
3378 1 2 0.000000 39.453400 25.061501 20.568001 # 2 UNK
3379 1 2 0.000000 42.654701 37.646500 21.941999 # 2 UNK
3380 1 2 0.000000 28.306101 34.295101 21.292000 # 2 UNK
3381 1 2 0.000000 42.846500 32.334599 37.875099 # 2 UNK
3382 1 2 0.000000 41.157902 44.393398 34.388599 # 2 UNK
3383 1 2 0.000000 45.724998 36.418499 7.060750 # 2 UNK
3384 1 2 0.000000 6.978850 35.433998 41.476398 # 2 UNK
3385 1 2 0.000000 13.457000 35.235802 24.281799 # 2 UNK
3386 1 2 0.000000 7.306510 21.889999 44.192200 # 2 UNK
3387 1 2 0.000000 3.078210 40.200001 32.458302 # 2 UNK
3388 1 2 0.000000 13.219900 34.865101 41.823898 # 2 UNK
3389 1 2 0.000000 34.289398 35.767399 43.130699 # 2 UNK
3390 1 2 0.000000 33.190601 20.280899 29.841499 # 2 UNK
3391 1 2 0.000000 29.999500 35.404598 33.251900 # 2 UNK
3392 1 2 0.000000 20.188400 41.408600 39.529202 # 2 UNK
3393 1 2 0.000000 25.554001 33.495602 11.132300 # 2 UNK
3394 1 2 0.000000 35.345402 14.119900 27.961800 # 2 UNK
3395 1 2 0.000000 43.842300 35.811001 17.313499 # 2 UNK
3396 1 2 0.000000 38.153500 13.229800 37.997101 # 2 UNK
3397 1 2 0.000000 39.999901 31.182199 22.288799 # 2 UNK
3398 1 2 0.000000 0.917897 18.514900 23.659599 # 2 UNK
3399 1 2 0.000000 42.833500 33.245300 18.014200 # 2 UNK
3400 1 2 0.000000 4.957290 2.117010 28.696800 # 2 UNK
3401 1 2 0.000000 31.888901 40.568600 23.446600 # 2 UNK
3402 1 2 0.000000 15.970800 25.442101 46.209499 # 2 UNK
3403 1 2 0.000000 29.624500 29.167299 23.888201 # 2 UNK
3404 1 2 0.000000 32.212101 35.206100 11.911800 # 2 UNK
3405 1 2 0.000000 32.286201 28.499800 32.991001 # 2 UNK
3406 1 2 0.000000 36.306499 12.560600 32.588600 # 2 UNK
3407 1 2 0.000000 6.662980 38.833500 35.868301 # 2 UNK
3408 1 2 0.000000 17.096399 29.518499 37.787998 # 2 UNK
3409 1 2 0.000000 36.144001 27.367201 13.271000 # 2 UNK
3410 1 2 0.000000 0.656704 26.633900 26.490400 # 2 UNK
3411 1 2 0.000000 17.339001 32.687901 13.728200 # 2 UNK
3412 1 2 0.000000 9.622350 27.433800 33.077702 # 2 UNK
3413 1 2 0.000000 34.501202 27.733900 21.903200 # 2 UNK
3414 1 2 0.000000 42.012901 32.924900 34.499199 # 2 UNK
3415 1 2 0.000000 0.593441 31.792801 5.316350 # 2 UNK
3416 1 2 0.000000 29.686100 37.492298 19.507601 # 2 UNK
3417 1 2 0.000000 35.515301 29.489201 17.550200 # 2 UNK
3418 1 2 0.000000 43.849098 25.440500 42.353001 # 2 UNK
3419 1 2 0.000000 41.866199 30.204599 42.316399 # 2 UNK
3420 1 2 0.000000 30.952600 34.184299 16.577600 # 2 UNK
3421 1 2 0.000000 22.104601 27.304399 42.951099 # 2 UNK
3422 1 2 0.000000 22.812599 25.031500 0.677806 # 2 UNK
3423 1 2 0.000000 30.751699 32.867401 45.224098 # 2 UNK
3424 1 2 0.000000 4.819250 37.557999 7.161480 # 2 UNK
3425 1 2 0.000000 38.634602 38.143200 26.992800 # 2 UNK
3426 1 2 0.000000 44.936901 25.754200 32.154099 # 2 UNK
3427 1 2 0.000000 41.791100 26.210600 13.724400 # 2 UNK
3428 1 2 0.000000 1.519350 11.274100 25.455700 # 2 UNK
3429 1 2 0.000000 46.779301 22.108700 36.430901 # 2 UNK
3430 1 2 0.000000 37.601501 9.565330 26.140100 # 2 UNK
3431 1 2 0.000000 20.750799 40.050999 12.090500 # 2 UNK
3432 1 2 0.000000 40.968300 31.616301 25.853701 # 2 UNK
3433 1 2 0.000000 44.654202 31.671801 23.318701 # 2 UNK
3434 1 2 0.000000 9.680230 39.562801 0.632889 # 2 UNK
3435 1 2 0.000000 17.637600 26.812799 4.521930 # 2 UNK
3436 1 2 0.000000 3.943140 24.686800 1.755360 # 2 UNK
3437 1 2 0.000000 8.323270 43.689301 39.990501 # 2 UNK
3438 1 2 0.000000 35.841000 23.744600 42.511902 # 2 UNK
3439 1 2 0.000000 47.084099 28.486000 5.997330 # 2 UNK
3440 1 2 0.000000 7.293540 35.024899 45.000198 # 2 UNK
3441 1 2 0.000000 26.295000 28.261499 43.569599 # 2 UNK
3442 1 2 0.000000 33.030602 15.600400 41.730202 # 2 UNK
3443 1 2 0.000000 13.219800 28.277599 7.591470 # 2 UNK
3444 1 2 0.000000 36.940399 35.493401 0.789969 # 2 UNK
3445 1 2 0.000000 16.296200 37.919300 0.889496 # 2 UNK
3446 1 2 0.000000 37.734600 8.426330 39.490898 # 2 UNK
3447 1 2 0.000000 6.268730 34.980202 38.376400 # 2 UNK
3448 1 2 0.000000 43.296200 32.577400 4.611270 # 2 UNK
3449 1 2 0.000000 2.584050 35.484798 27.606501 # 2 UNK
3450 1 2 0.000000 40.745602 28.930700 33.860802 # 2 UNK
3451 1 2 0.000000 40.676300 18.907301 44.106499 # 2 UNK
3452 1 2 0.000000 33.365501 42.177502 38.500999 # 2 UNK
3453 1 2 0.000000 28.892500 23.151300 40.084000 # 2 UNK
3454 1 2 0.000000 37.959202 39.221699 30.607401 # 2 UNK
3455 1 2 0.000000 39.441601 38.577599 34.336899 # 2 UNK
3456 1 2 0.000000 -0.047677 42.420502 34.801300 # 2 UNK

